# GHz S MA R 50

2.000000000000000e+00  0.0000000000000000e+00  0.0000000000000000e+00  7.0710678118654746e-01  0.0000000000000000e+00  7.0710678118654746e-01  0.0000000000000000e+00  0.0000000000000000e+00  0.0000000000000000e+00
                         7.0710678118654746e-01  0.0000000000000000e+00  0.0000000000000000e+00  0.0000000000000000e+00  0.0000000000000000e+00  0.0000000000000000e+00  7.0710678118654746e-01  1.8000000000000000e+02
                         7.0710678118654746e-01  0.0000000000000000e+00  0.0000000000000000e+00  0.0000000000000000e+00  0.0000000000000000e+00  0.0000000000000000e+00  7.0710678118654746e-01  0.0000000000000000e+00
                         0.0000000000000000e+00  0.0000000000000000e+00  7.0710678118654746e-01  1.8000000000000000e+02  7.0710678118654746e-01  0.0000000000000000e+00  0.0000000000000000e+00  0.0000000000000000e+00
2.001000000000000e+00  0.0000000000000000e+00  0.0000000000000000e+00  7.0710678118654746e-01  0.0000000000000000e+00  7.0710678118654746e-01  0.0000000000000000e+00  0.0000000000000000e+00  0.0000000000000000e+00
                         7.0710678118654746e-01  0.0000000000000000e+00  0.0000000000000000e+00  0.0000000000000000e+00  0.0000000000000000e+00  0.0000000000000000e+00  7.0710678118654746e-01  1.8000000000000000e+02
                         7.0710678118654746e-01  0.0000000000000000e+00  0.0000000000000000e+00  0.0000000000000000e+00  0.0000000000000000e+00  0.0000000000000000e+00  7.0710678118654746e-01  0.0000000000000000e+00
                         0.0000000000000000e+00  0.0000000000000000e+00  7.0710678118654746e-01  1.8000000000000000e+02  7.0710678118654746e-01  0.0000000000000000e+00  0.0000000000000000e+00  0.0000000000000000e+00
2.002000000000000e+00  0.0000000000000000e+00  0.0000000000000000e+00  7.0710678118654746e-01  0.0000000000000000e+00  7.0710678118654746e-01  0.0000000000000000e+00  0.0000000000000000e+00  0.0000000000000000e+00
                         7.0710678118654746e-01  0.0000000000000000e+00  0.0000000000000000e+00  0.0000000000000000e+00  0.0000000000000000e+00  0.0000000000000000e+00  7.0710678118654746e-01  1.8000000000000000e+02
                         7.0710678118654746e-01  0.0000000000000000e+00  0.0000000000000000e+00  0.0000000000000000e+00  0.0000000000000000e+00  0.0000000000000000e+00  7.0710678118654746e-01  0.0000000000000000e+00
                         0.0000000000000000e+00  0.0000000000000000e+00  7.0710678118654746e-01  1.8000000000000000e+02  7.0710678118654746e-01  0.0000000000000000e+00  0.0000000000000000e+00  0.0000000000000000e+00
2.003000000000000e+00  0.0000000000000000e+00  0.0000000000000000e+00  7.0710678118654746e-01  0.0000000000000000e+00  7.0710678118654746e-01  0.0000000000000000e+00  0.0000000000000000e+00  0.0000000000000000e+00
                         7.0710678118654746e-01  0.0000000000000000e+00  0.0000000000000000e+00  0.0000000000000000e+00  0.0000000000000000e+00  0.0000000000000000e+00  7.0710678118654746e-01  1.8000000000000000e+02
                         7.0710678118654746e-01  0.0000000000000000e+00  0.0000000000000000e+00  0.0000000000000000e+00  0.0000000000000000e+00  0.0000000000000000e+00  7.0710678118654746e-01  0.0000000000000000e+00
                         0.0000000000000000e+00  0.0000000000000000e+00  7.0710678118654746e-01  1.8000000000000000e+02  7.0710678118654746e-01  0.0000000000000000e+00  0.0000000000000000e+00  0.0000000000000000e+00
2.004000000000000e+00  0.0000000000000000e+00  0.0000000000000000e+00  7.0710678118654746e-01  0.0000000000000000e+00  7.0710678118654746e-01  0.0000000000000000e+00  0.0000000000000000e+00  0.0000000000000000e+00
                         7.0710678118654746e-01  0.0000000000000000e+00  0.0000000000000000e+00  0.0000000000000000e+00  0.0000000000000000e+00  0.0000000000000000e+00  7.0710678118654746e-01  1.8000000000000000e+02
                         7.0710678118654746e-01  0.0000000000000000e+00  0.0000000000000000e+00  0.0000000000000000e+00  0.0000000000000000e+00  0.0000000000000000e+00  7.0710678118654746e-01  0.0000000000000000e+00
                         0.0000000000000000e+00  0.0000000000000000e+00  7.0710678118654746e-01  1.8000000000000000e+02  7.0710678118654746e-01  0.0000000000000000e+00  0.0000000000000000e+00  0.0000000000000000e+00
2.005000000000000e+00  0.0000000000000000e+00  0.0000000000000000e+00  7.0710678118654746e-01  0.0000000000000000e+00  7.0710678118654746e-01  0.0000000000000000e+00  0.0000000000000000e+00  0.0000000000000000e+00
                         7.0710678118654746e-01  0.0000000000000000e+00  0.0000000000000000e+00  0.0000000000000000e+00  0.0000000000000000e+00  0.0000000000000000e+00  7.0710678118654746e-01  1.8000000000000000e+02
                         7.0710678118654746e-01  0.0000000000000000e+00  0.0000000000000000e+00  0.0000000000000000e+00  0.0000000000000000e+00  0.0000000000000000e+00  7.0710678118654746e-01  0.0000000000000000e+00
                         0.0000000000000000e+00  0.0000000000000000e+00  7.0710678118654746e-01  1.8000000000000000e+02  7.0710678118654746e-01  0.0000000000000000e+00  0.0000000000000000e+00  0.0000000000000000e+00
2.006000000000000e+00  0.0000000000000000e+00  0.0000000000000000e+00  7.0710678118654746e-01  0.0000000000000000e+00  7.0710678118654746e-01  0.0000000000000000e+00  0.0000000000000000e+00  0.0000000000000000e+00
                         7.0710678118654746e-01  0.0000000000000000e+00  0.0000000000000000e+00  0.0000000000000000e+00  0.0000000000000000e+00  0.0000000000000000e+00  7.0710678118654746e-01  1.8000000000000000e+02
                         7.0710678118654746e-01  0.0000000000000000e+00  0.0000000000000000e+00  0.0000000000000000e+00  0.0000000000000000e+00  0.0000000000000000e+00  7.0710678118654746e-01  0.0000000000000000e+00
                         0.0000000000000000e+00  0.0000000000000000e+00  7.0710678118654746e-01  1.8000000000000000e+02  7.0710678118654746e-01  0.0000000000000000e+00  0.0000000000000000e+00  0.0000000000000000e+00
2.007000000000000e+00  0.0000000000000000e+00  0.0000000000000000e+00  7.0710678118654746e-01  0.0000000000000000e+00  7.0710678118654746e-01  0.0000000000000000e+00  0.0000000000000000e+00  0.0000000000000000e+00
                         7.0710678118654746e-01  0.0000000000000000e+00  0.0000000000000000e+00  0.0000000000000000e+00  0.0000000000000000e+00  0.0000000000000000e+00  7.0710678118654746e-01  1.8000000000000000e+02
                         7.0710678118654746e-01  0.0000000000000000e+00  0.0000000000000000e+00  0.0000000000000000e+00  0.0000000000000000e+00  0.0000000000000000e+00  7.0710678118654746e-01  0.0000000000000000e+00
                         0.0000000000000000e+00  0.0000000000000000e+00  7.0710678118654746e-01  1.8000000000000000e+02  7.0710678118654746e-01  0.0000000000000000e+00  0.0000000000000000e+00  0.0000000000000000e+00
2.008000000000000e+00  0.0000000000000000e+00  0.0000000000000000e+00  7.0710678118654746e-01  0.0000000000000000e+00  7.0710678118654746e-01  0.0000000000000000e+00  0.0000000000000000e+00  0.0000000000000000e+00
                         7.0710678118654746e-01  0.0000000000000000e+00  0.0000000000000000e+00  0.0000000000000000e+00  0.0000000000000000e+00  0.0000000000000000e+00  7.0710678118654746e-01  1.8000000000000000e+02
                         7.0710678118654746e-01  0.0000000000000000e+00  0.0000000000000000e+00  0.0000000000000000e+00  0.0000000000000000e+00  0.0000000000000000e+00  7.0710678118654746e-01  0.0000000000000000e+00
                         0.0000000000000000e+00  0.0000000000000000e+00  7.0710678118654746e-01  1.8000000000000000e+02  7.0710678118654746e-01  0.0000000000000000e+00  0.0000000000000000e+00  0.0000000000000000e+00
2.009000000000000e+00  0.0000000000000000e+00  0.0000000000000000e+00  7.0710678118654746e-01  0.0000000000000000e+00  7.0710678118654746e-01  0.0000000000000000e+00  0.0000000000000000e+00  0.0000000000000000e+00
                         7.0710678118654746e-01  0.0000000000000000e+00  0.0000000000000000e+00  0.0000000000000000e+00  0.0000000000000000e+00  0.0000000000000000e+00  7.0710678118654746e-01  1.8000000000000000e+02
                         7.0710678118654746e-01  0.0000000000000000e+00  0.0000000000000000e+00  0.0000000000000000e+00  0.0000000000000000e+00  0.0000000000000000e+00  7.0710678118654746e-01  0.0000000000000000e+00
                         0.0000000000000000e+00  0.0000000000000000e+00  7.0710678118654746e-01  1.8000000000000000e+02  7.0710678118654746e-01  0.0000000000000000e+00  0.0000000000000000e+00  0.0000000000000000e+00
2.010000000000000e+00  0.0000000000000000e+00  0.0000000000000000e+00  7.0710678118654746e-01  0.0000000000000000e+00  7.0710678118654746e-01  0.0000000000000000e+00  0.0000000000000000e+00  0.0000000000000000e+00
                         7.0710678118654746e-01  0.0000000000000000e+00  0.0000000000000000e+00  0.0000000000000000e+00  0.0000000000000000e+00  0.0000000000000000e+00  7.0710678118654746e-01  1.8000000000000000e+02
                         7.0710678118654746e-01  0.0000000000000000e+00  0.0000000000000000e+00  0.0000000000000000e+00  0.0000000000000000e+00  0.0000000000000000e+00  7.0710678118654746e-01  0.0000000000000000e+00
                         0.0000000000000000e+00  0.0000000000000000e+00  7.0710678118654746e-01  1.8000000000000000e+02  7.0710678118654746e-01  0.0000000000000000e+00  0.0000000000000000e+00  0.0000000000000000e+00
2.011000000000000e+00  0.0000000000000000e+00  0.0000000000000000e+00  7.0710678118654746e-01  0.0000000000000000e+00  7.0710678118654746e-01  0.0000000000000000e+00  0.0000000000000000e+00  0.0000000000000000e+00
                         7.0710678118654746e-01  0.0000000000000000e+00  0.0000000000000000e+00  0.0000000000000000e+00  0.0000000000000000e+00  0.0000000000000000e+00  7.0710678118654746e-01  1.8000000000000000e+02
                         7.0710678118654746e-01  0.0000000000000000e+00  0.0000000000000000e+00  0.0000000000000000e+00  0.0000000000000000e+00  0.0000000000000000e+00  7.0710678118654746e-01  0.0000000000000000e+00
                         0.0000000000000000e+00  0.0000000000000000e+00  7.0710678118654746e-01  1.8000000000000000e+02  7.0710678118654746e-01  0.0000000000000000e+00  0.0000000000000000e+00  0.0000000000000000e+00
2.012000000000000e+00  0.0000000000000000e+00  0.0000000000000000e+00  7.0710678118654746e-01  0.0000000000000000e+00  7.0710678118654746e-01  0.0000000000000000e+00  0.0000000000000000e+00  0.0000000000000000e+00
                         7.0710678118654746e-01  0.0000000000000000e+00  0.0000000000000000e+00  0.0000000000000000e+00  0.0000000000000000e+00  0.0000000000000000e+00  7.0710678118654746e-01  1.8000000000000000e+02
                         7.0710678118654746e-01  0.0000000000000000e+00  0.0000000000000000e+00  0.0000000000000000e+00  0.0000000000000000e+00  0.0000000000000000e+00  7.0710678118654746e-01  0.0000000000000000e+00
                         0.0000000000000000e+00  0.0000000000000000e+00  7.0710678118654746e-01  1.8000000000000000e+02  7.0710678118654746e-01  0.0000000000000000e+00  0.0000000000000000e+00  0.0000000000000000e+00
2.013000000000000e+00  0.0000000000000000e+00  0.0000000000000000e+00  7.0710678118654746e-01  0.0000000000000000e+00  7.0710678118654746e-01  0.0000000000000000e+00  0.0000000000000000e+00  0.0000000000000000e+00
                         7.0710678118654746e-01  0.0000000000000000e+00  0.0000000000000000e+00  0.0000000000000000e+00  0.0000000000000000e+00  0.0000000000000000e+00  7.0710678118654746e-01  1.8000000000000000e+02
                         7.0710678118654746e-01  0.0000000000000000e+00  0.0000000000000000e+00  0.0000000000000000e+00  0.0000000000000000e+00  0.0000000000000000e+00  7.0710678118654746e-01  0.0000000000000000e+00
                         0.0000000000000000e+00  0.0000000000000000e+00  7.0710678118654746e-01  1.8000000000000000e+02  7.0710678118654746e-01  0.0000000000000000e+00  0.0000000000000000e+00  0.0000000000000000e+00
2.014000000000000e+00  0.0000000000000000e+00  0.0000000000000000e+00  7.0710678118654746e-01  0.0000000000000000e+00  7.0710678118654746e-01  0.0000000000000000e+00  0.0000000000000000e+00  0.0000000000000000e+00
                         7.0710678118654746e-01  0.0000000000000000e+00  0.0000000000000000e+00  0.0000000000000000e+00  0.0000000000000000e+00  0.0000000000000000e+00  7.0710678118654746e-01  1.8000000000000000e+02
                         7.0710678118654746e-01  0.0000000000000000e+00  0.0000000000000000e+00  0.0000000000000000e+00  0.0000000000000000e+00  0.0000000000000000e+00  7.0710678118654746e-01  0.0000000000000000e+00
                         0.0000000000000000e+00  0.0000000000000000e+00  7.0710678118654746e-01  1.8000000000000000e+02  7.0710678118654746e-01  0.0000000000000000e+00  0.0000000000000000e+00  0.0000000000000000e+00
2.015000000000000e+00  0.0000000000000000e+00  0.0000000000000000e+00  7.0710678118654746e-01  0.0000000000000000e+00  7.0710678118654746e-01  0.0000000000000000e+00  0.0000000000000000e+00  0.0000000000000000e+00
                         7.0710678118654746e-01  0.0000000000000000e+00  0.0000000000000000e+00  0.0000000000000000e+00  0.0000000000000000e+00  0.0000000000000000e+00  7.0710678118654746e-01  1.8000000000000000e+02
                         7.0710678118654746e-01  0.0000000000000000e+00  0.0000000000000000e+00  0.0000000000000000e+00  0.0000000000000000e+00  0.0000000000000000e+00  7.0710678118654746e-01  0.0000000000000000e+00
                         0.0000000000000000e+00  0.0000000000000000e+00  7.0710678118654746e-01  1.8000000000000000e+02  7.0710678118654746e-01  0.0000000000000000e+00  0.0000000000000000e+00  0.0000000000000000e+00
2.016000000000000e+00  0.0000000000000000e+00  0.0000000000000000e+00  7.0710678118654746e-01  0.0000000000000000e+00  7.0710678118654746e-01  0.0000000000000000e+00  0.0000000000000000e+00  0.0000000000000000e+00
                         7.0710678118654746e-01  0.0000000000000000e+00  0.0000000000000000e+00  0.0000000000000000e+00  0.0000000000000000e+00  0.0000000000000000e+00  7.0710678118654746e-01  1.8000000000000000e+02
                         7.0710678118654746e-01  0.0000000000000000e+00  0.0000000000000000e+00  0.0000000000000000e+00  0.0000000000000000e+00  0.0000000000000000e+00  7.0710678118654746e-01  0.0000000000000000e+00
                         0.0000000000000000e+00  0.0000000000000000e+00  7.0710678118654746e-01  1.8000000000000000e+02  7.0710678118654746e-01  0.0000000000000000e+00  0.0000000000000000e+00  0.0000000000000000e+00
2.017000000000000e+00  0.0000000000000000e+00  0.0000000000000000e+00  7.0710678118654746e-01  0.0000000000000000e+00  7.0710678118654746e-01  0.0000000000000000e+00  0.0000000000000000e+00  0.0000000000000000e+00
                         7.0710678118654746e-01  0.0000000000000000e+00  0.0000000000000000e+00  0.0000000000000000e+00  0.0000000000000000e+00  0.0000000000000000e+00  7.0710678118654746e-01  1.8000000000000000e+02
                         7.0710678118654746e-01  0.0000000000000000e+00  0.0000000000000000e+00  0.0000000000000000e+00  0.0000000000000000e+00  0.0000000000000000e+00  7.0710678118654746e-01  0.0000000000000000e+00
                         0.0000000000000000e+00  0.0000000000000000e+00  7.0710678118654746e-01  1.8000000000000000e+02  7.0710678118654746e-01  0.0000000000000000e+00  0.0000000000000000e+00  0.0000000000000000e+00
2.018000000000000e+00  0.0000000000000000e+00  0.0000000000000000e+00  7.0710678118654746e-01  0.0000000000000000e+00  7.0710678118654746e-01  0.0000000000000000e+00  0.0000000000000000e+00  0.0000000000000000e+00
                         7.0710678118654746e-01  0.0000000000000000e+00  0.0000000000000000e+00  0.0000000000000000e+00  0.0000000000000000e+00  0.0000000000000000e+00  7.0710678118654746e-01  1.8000000000000000e+02
                         7.0710678118654746e-01  0.0000000000000000e+00  0.0000000000000000e+00  0.0000000000000000e+00  0.0000000000000000e+00  0.0000000000000000e+00  7.0710678118654746e-01  0.0000000000000000e+00
                         0.0000000000000000e+00  0.0000000000000000e+00  7.0710678118654746e-01  1.8000000000000000e+02  7.0710678118654746e-01  0.0000000000000000e+00  0.0000000000000000e+00  0.0000000000000000e+00
2.019000000000000e+00  0.0000000000000000e+00  0.0000000000000000e+00  7.0710678118654746e-01  0.0000000000000000e+00  7.0710678118654746e-01  0.0000000000000000e+00  0.0000000000000000e+00  0.0000000000000000e+00
                         7.0710678118654746e-01  0.0000000000000000e+00  0.0000000000000000e+00  0.0000000000000000e+00  0.0000000000000000e+00  0.0000000000000000e+00  7.0710678118654746e-01  1.8000000000000000e+02
                         7.0710678118654746e-01  0.0000000000000000e+00  0.0000000000000000e+00  0.0000000000000000e+00  0.0000000000000000e+00  0.0000000000000000e+00  7.0710678118654746e-01  0.0000000000000000e+00
                         0.0000000000000000e+00  0.0000000000000000e+00  7.0710678118654746e-01  1.8000000000000000e+02  7.0710678118654746e-01  0.0000000000000000e+00  0.0000000000000000e+00  0.0000000000000000e+00
2.020000000000000e+00  0.0000000000000000e+00  0.0000000000000000e+00  7.0710678118654746e-01  0.0000000000000000e+00  7.0710678118654746e-01  0.0000000000000000e+00  0.0000000000000000e+00  0.0000000000000000e+00
                         7.0710678118654746e-01  0.0000000000000000e+00  0.0000000000000000e+00  0.0000000000000000e+00  0.0000000000000000e+00  0.0000000000000000e+00  7.0710678118654746e-01  1.8000000000000000e+02
                         7.0710678118654746e-01  0.0000000000000000e+00  0.0000000000000000e+00  0.0000000000000000e+00  0.0000000000000000e+00  0.0000000000000000e+00  7.0710678118654746e-01  0.0000000000000000e+00
                         0.0000000000000000e+00  0.0000000000000000e+00  7.0710678118654746e-01  1.8000000000000000e+02  7.0710678118654746e-01  0.0000000000000000e+00  0.0000000000000000e+00  0.0000000000000000e+00
2.021000000000000e+00  0.0000000000000000e+00  0.0000000000000000e+00  7.0710678118654746e-01  0.0000000000000000e+00  7.0710678118654746e-01  0.0000000000000000e+00  0.0000000000000000e+00  0.0000000000000000e+00
                         7.0710678118654746e-01  0.0000000000000000e+00  0.0000000000000000e+00  0.0000000000000000e+00  0.0000000000000000e+00  0.0000000000000000e+00  7.0710678118654746e-01  1.8000000000000000e+02
                         7.0710678118654746e-01  0.0000000000000000e+00  0.0000000000000000e+00  0.0000000000000000e+00  0.0000000000000000e+00  0.0000000000000000e+00  7.0710678118654746e-01  0.0000000000000000e+00
                         0.0000000000000000e+00  0.0000000000000000e+00  7.0710678118654746e-01  1.8000000000000000e+02  7.0710678118654746e-01  0.0000000000000000e+00  0.0000000000000000e+00  0.0000000000000000e+00
2.022000000000000e+00  0.0000000000000000e+00  0.0000000000000000e+00  7.0710678118654746e-01  0.0000000000000000e+00  7.0710678118654746e-01  0.0000000000000000e+00  0.0000000000000000e+00  0.0000000000000000e+00
                         7.0710678118654746e-01  0.0000000000000000e+00  0.0000000000000000e+00  0.0000000000000000e+00  0.0000000000000000e+00  0.0000000000000000e+00  7.0710678118654746e-01  1.8000000000000000e+02
                         7.0710678118654746e-01  0.0000000000000000e+00  0.0000000000000000e+00  0.0000000000000000e+00  0.0000000000000000e+00  0.0000000000000000e+00  7.0710678118654746e-01  0.0000000000000000e+00
                         0.0000000000000000e+00  0.0000000000000000e+00  7.0710678118654746e-01  1.8000000000000000e+02  7.0710678118654746e-01  0.0000000000000000e+00  0.0000000000000000e+00  0.0000000000000000e+00
2.023000000000000e+00  0.0000000000000000e+00  0.0000000000000000e+00  7.0710678118654746e-01  0.0000000000000000e+00  7.0710678118654746e-01  0.0000000000000000e+00  0.0000000000000000e+00  0.0000000000000000e+00
                         7.0710678118654746e-01  0.0000000000000000e+00  0.0000000000000000e+00  0.0000000000000000e+00  0.0000000000000000e+00  0.0000000000000000e+00  7.0710678118654746e-01  1.8000000000000000e+02
                         7.0710678118654746e-01  0.0000000000000000e+00  0.0000000000000000e+00  0.0000000000000000e+00  0.0000000000000000e+00  0.0000000000000000e+00  7.0710678118654746e-01  0.0000000000000000e+00
                         0.0000000000000000e+00  0.0000000000000000e+00  7.0710678118654746e-01  1.8000000000000000e+02  7.0710678118654746e-01  0.0000000000000000e+00  0.0000000000000000e+00  0.0000000000000000e+00
2.024000000000000e+00  0.0000000000000000e+00  0.0000000000000000e+00  7.0710678118654746e-01  0.0000000000000000e+00  7.0710678118654746e-01  0.0000000000000000e+00  0.0000000000000000e+00  0.0000000000000000e+00
                         7.0710678118654746e-01  0.0000000000000000e+00  0.0000000000000000e+00  0.0000000000000000e+00  0.0000000000000000e+00  0.0000000000000000e+00  7.0710678118654746e-01  1.8000000000000000e+02
                         7.0710678118654746e-01  0.0000000000000000e+00  0.0000000000000000e+00  0.0000000000000000e+00  0.0000000000000000e+00  0.0000000000000000e+00  7.0710678118654746e-01  0.0000000000000000e+00
                         0.0000000000000000e+00  0.0000000000000000e+00  7.0710678118654746e-01  1.8000000000000000e+02  7.0710678118654746e-01  0.0000000000000000e+00  0.0000000000000000e+00  0.0000000000000000e+00
2.025000000000000e+00  0.0000000000000000e+00  0.0000000000000000e+00  7.0710678118654746e-01  0.0000000000000000e+00  7.0710678118654746e-01  0.0000000000000000e+00  0.0000000000000000e+00  0.0000000000000000e+00
                         7.0710678118654746e-01  0.0000000000000000e+00  0.0000000000000000e+00  0.0000000000000000e+00  0.0000000000000000e+00  0.0000000000000000e+00  7.0710678118654746e-01  1.8000000000000000e+02
                         7.0710678118654746e-01  0.0000000000000000e+00  0.0000000000000000e+00  0.0000000000000000e+00  0.0000000000000000e+00  0.0000000000000000e+00  7.0710678118654746e-01  0.0000000000000000e+00
                         0.0000000000000000e+00  0.0000000000000000e+00  7.0710678118654746e-01  1.8000000000000000e+02  7.0710678118654746e-01  0.0000000000000000e+00  0.0000000000000000e+00  0.0000000000000000e+00
2.026000000000000e+00  0.0000000000000000e+00  0.0000000000000000e+00  7.0710678118654746e-01  0.0000000000000000e+00  7.0710678118654746e-01  0.0000000000000000e+00  0.0000000000000000e+00  0.0000000000000000e+00
                         7.0710678118654746e-01  0.0000000000000000e+00  0.0000000000000000e+00  0.0000000000000000e+00  0.0000000000000000e+00  0.0000000000000000e+00  7.0710678118654746e-01  1.8000000000000000e+02
                         7.0710678118654746e-01  0.0000000000000000e+00  0.0000000000000000e+00  0.0000000000000000e+00  0.0000000000000000e+00  0.0000000000000000e+00  7.0710678118654746e-01  0.0000000000000000e+00
                         0.0000000000000000e+00  0.0000000000000000e+00  7.0710678118654746e-01  1.8000000000000000e+02  7.0710678118654746e-01  0.0000000000000000e+00  0.0000000000000000e+00  0.0000000000000000e+00
2.027000000000000e+00  0.0000000000000000e+00  0.0000000000000000e+00  7.0710678118654746e-01  0.0000000000000000e+00  7.0710678118654746e-01  0.0000000000000000e+00  0.0000000000000000e+00  0.0000000000000000e+00
                         7.0710678118654746e-01  0.0000000000000000e+00  0.0000000000000000e+00  0.0000000000000000e+00  0.0000000000000000e+00  0.0000000000000000e+00  7.0710678118654746e-01  1.8000000000000000e+02
                         7.0710678118654746e-01  0.0000000000000000e+00  0.0000000000000000e+00  0.0000000000000000e+00  0.0000000000000000e+00  0.0000000000000000e+00  7.0710678118654746e-01  0.0000000000000000e+00
                         0.0000000000000000e+00  0.0000000000000000e+00  7.0710678118654746e-01  1.8000000000000000e+02  7.0710678118654746e-01  0.0000000000000000e+00  0.0000000000000000e+00  0.0000000000000000e+00
2.028000000000000e+00  0.0000000000000000e+00  0.0000000000000000e+00  7.0710678118654746e-01  0.0000000000000000e+00  7.0710678118654746e-01  0.0000000000000000e+00  0.0000000000000000e+00  0.0000000000000000e+00
                         7.0710678118654746e-01  0.0000000000000000e+00  0.0000000000000000e+00  0.0000000000000000e+00  0.0000000000000000e+00  0.0000000000000000e+00  7.0710678118654746e-01  1.8000000000000000e+02
                         7.0710678118654746e-01  0.0000000000000000e+00  0.0000000000000000e+00  0.0000000000000000e+00  0.0000000000000000e+00  0.0000000000000000e+00  7.0710678118654746e-01  0.0000000000000000e+00
                         0.0000000000000000e+00  0.0000000000000000e+00  7.0710678118654746e-01  1.8000000000000000e+02  7.0710678118654746e-01  0.0000000000000000e+00  0.0000000000000000e+00  0.0000000000000000e+00
2.029000000000000e+00  0.0000000000000000e+00  0.0000000000000000e+00  7.0710678118654746e-01  0.0000000000000000e+00  7.0710678118654746e-01  0.0000000000000000e+00  0.0000000000000000e+00  0.0000000000000000e+00
                         7.0710678118654746e-01  0.0000000000000000e+00  0.0000000000000000e+00  0.0000000000000000e+00  0.0000000000000000e+00  0.0000000000000000e+00  7.0710678118654746e-01  1.8000000000000000e+02
                         7.0710678118654746e-01  0.0000000000000000e+00  0.0000000000000000e+00  0.0000000000000000e+00  0.0000000000000000e+00  0.0000000000000000e+00  7.0710678118654746e-01  0.0000000000000000e+00
                         0.0000000000000000e+00  0.0000000000000000e+00  7.0710678118654746e-01  1.8000000000000000e+02  7.0710678118654746e-01  0.0000000000000000e+00  0.0000000000000000e+00  0.0000000000000000e+00
2.030000000000000e+00  0.0000000000000000e+00  0.0000000000000000e+00  7.0710678118654746e-01  0.0000000000000000e+00  7.0710678118654746e-01  0.0000000000000000e+00  0.0000000000000000e+00  0.0000000000000000e+00
                         7.0710678118654746e-01  0.0000000000000000e+00  0.0000000000000000e+00  0.0000000000000000e+00  0.0000000000000000e+00  0.0000000000000000e+00  7.0710678118654746e-01  1.8000000000000000e+02
                         7.0710678118654746e-01  0.0000000000000000e+00  0.0000000000000000e+00  0.0000000000000000e+00  0.0000000000000000e+00  0.0000000000000000e+00  7.0710678118654746e-01  0.0000000000000000e+00
                         0.0000000000000000e+00  0.0000000000000000e+00  7.0710678118654746e-01  1.8000000000000000e+02  7.0710678118654746e-01  0.0000000000000000e+00  0.0000000000000000e+00  0.0000000000000000e+00
2.031000000000000e+00  0.0000000000000000e+00  0.0000000000000000e+00  7.0710678118654746e-01  0.0000000000000000e+00  7.0710678118654746e-01  0.0000000000000000e+00  0.0000000000000000e+00  0.0000000000000000e+00
                         7.0710678118654746e-01  0.0000000000000000e+00  0.0000000000000000e+00  0.0000000000000000e+00  0.0000000000000000e+00  0.0000000000000000e+00  7.0710678118654746e-01  1.8000000000000000e+02
                         7.0710678118654746e-01  0.0000000000000000e+00  0.0000000000000000e+00  0.0000000000000000e+00  0.0000000000000000e+00  0.0000000000000000e+00  7.0710678118654746e-01  0.0000000000000000e+00
                         0.0000000000000000e+00  0.0000000000000000e+00  7.0710678118654746e-01  1.8000000000000000e+02  7.0710678118654746e-01  0.0000000000000000e+00  0.0000000000000000e+00  0.0000000000000000e+00
2.032000000000000e+00  0.0000000000000000e+00  0.0000000000000000e+00  7.0710678118654746e-01  0.0000000000000000e+00  7.0710678118654746e-01  0.0000000000000000e+00  0.0000000000000000e+00  0.0000000000000000e+00
                         7.0710678118654746e-01  0.0000000000000000e+00  0.0000000000000000e+00  0.0000000000000000e+00  0.0000000000000000e+00  0.0000000000000000e+00  7.0710678118654746e-01  1.8000000000000000e+02
                         7.0710678118654746e-01  0.0000000000000000e+00  0.0000000000000000e+00  0.0000000000000000e+00  0.0000000000000000e+00  0.0000000000000000e+00  7.0710678118654746e-01  0.0000000000000000e+00
                         0.0000000000000000e+00  0.0000000000000000e+00  7.0710678118654746e-01  1.8000000000000000e+02  7.0710678118654746e-01  0.0000000000000000e+00  0.0000000000000000e+00  0.0000000000000000e+00
2.033000000000000e+00  0.0000000000000000e+00  0.0000000000000000e+00  7.0710678118654746e-01  0.0000000000000000e+00  7.0710678118654746e-01  0.0000000000000000e+00  0.0000000000000000e+00  0.0000000000000000e+00
                         7.0710678118654746e-01  0.0000000000000000e+00  0.0000000000000000e+00  0.0000000000000000e+00  0.0000000000000000e+00  0.0000000000000000e+00  7.0710678118654746e-01  1.8000000000000000e+02
                         7.0710678118654746e-01  0.0000000000000000e+00  0.0000000000000000e+00  0.0000000000000000e+00  0.0000000000000000e+00  0.0000000000000000e+00  7.0710678118654746e-01  0.0000000000000000e+00
                         0.0000000000000000e+00  0.0000000000000000e+00  7.0710678118654746e-01  1.8000000000000000e+02  7.0710678118654746e-01  0.0000000000000000e+00  0.0000000000000000e+00  0.0000000000000000e+00
2.034000000000000e+00  0.0000000000000000e+00  0.0000000000000000e+00  7.0710678118654746e-01  0.0000000000000000e+00  7.0710678118654746e-01  0.0000000000000000e+00  0.0000000000000000e+00  0.0000000000000000e+00
                         7.0710678118654746e-01  0.0000000000000000e+00  0.0000000000000000e+00  0.0000000000000000e+00  0.0000000000000000e+00  0.0000000000000000e+00  7.0710678118654746e-01  1.8000000000000000e+02
                         7.0710678118654746e-01  0.0000000000000000e+00  0.0000000000000000e+00  0.0000000000000000e+00  0.0000000000000000e+00  0.0000000000000000e+00  7.0710678118654746e-01  0.0000000000000000e+00
                         0.0000000000000000e+00  0.0000000000000000e+00  7.0710678118654746e-01  1.8000000000000000e+02  7.0710678118654746e-01  0.0000000000000000e+00  0.0000000000000000e+00  0.0000000000000000e+00
2.035000000000000e+00  0.0000000000000000e+00  0.0000000000000000e+00  7.0710678118654746e-01  0.0000000000000000e+00  7.0710678118654746e-01  0.0000000000000000e+00  0.0000000000000000e+00  0.0000000000000000e+00
                         7.0710678118654746e-01  0.0000000000000000e+00  0.0000000000000000e+00  0.0000000000000000e+00  0.0000000000000000e+00  0.0000000000000000e+00  7.0710678118654746e-01  1.8000000000000000e+02
                         7.0710678118654746e-01  0.0000000000000000e+00  0.0000000000000000e+00  0.0000000000000000e+00  0.0000000000000000e+00  0.0000000000000000e+00  7.0710678118654746e-01  0.0000000000000000e+00
                         0.0000000000000000e+00  0.0000000000000000e+00  7.0710678118654746e-01  1.8000000000000000e+02  7.0710678118654746e-01  0.0000000000000000e+00  0.0000000000000000e+00  0.0000000000000000e+00
2.036000000000000e+00  0.0000000000000000e+00  0.0000000000000000e+00  7.0710678118654746e-01  0.0000000000000000e+00  7.0710678118654746e-01  0.0000000000000000e+00  0.0000000000000000e+00  0.0000000000000000e+00
                         7.0710678118654746e-01  0.0000000000000000e+00  0.0000000000000000e+00  0.0000000000000000e+00  0.0000000000000000e+00  0.0000000000000000e+00  7.0710678118654746e-01  1.8000000000000000e+02
                         7.0710678118654746e-01  0.0000000000000000e+00  0.0000000000000000e+00  0.0000000000000000e+00  0.0000000000000000e+00  0.0000000000000000e+00  7.0710678118654746e-01  0.0000000000000000e+00
                         0.0000000000000000e+00  0.0000000000000000e+00  7.0710678118654746e-01  1.8000000000000000e+02  7.0710678118654746e-01  0.0000000000000000e+00  0.0000000000000000e+00  0.0000000000000000e+00
2.037000000000000e+00  0.0000000000000000e+00  0.0000000000000000e+00  7.0710678118654746e-01  0.0000000000000000e+00  7.0710678118654746e-01  0.0000000000000000e+00  0.0000000000000000e+00  0.0000000000000000e+00
                         7.0710678118654746e-01  0.0000000000000000e+00  0.0000000000000000e+00  0.0000000000000000e+00  0.0000000000000000e+00  0.0000000000000000e+00  7.0710678118654746e-01  1.8000000000000000e+02
                         7.0710678118654746e-01  0.0000000000000000e+00  0.0000000000000000e+00  0.0000000000000000e+00  0.0000000000000000e+00  0.0000000000000000e+00  7.0710678118654746e-01  0.0000000000000000e+00
                         0.0000000000000000e+00  0.0000000000000000e+00  7.0710678118654746e-01  1.8000000000000000e+02  7.0710678118654746e-01  0.0000000000000000e+00  0.0000000000000000e+00  0.0000000000000000e+00
2.038000000000000e+00  0.0000000000000000e+00  0.0000000000000000e+00  7.0710678118654746e-01  0.0000000000000000e+00  7.0710678118654746e-01  0.0000000000000000e+00  0.0000000000000000e+00  0.0000000000000000e+00
                         7.0710678118654746e-01  0.0000000000000000e+00  0.0000000000000000e+00  0.0000000000000000e+00  0.0000000000000000e+00  0.0000000000000000e+00  7.0710678118654746e-01  1.8000000000000000e+02
                         7.0710678118654746e-01  0.0000000000000000e+00  0.0000000000000000e+00  0.0000000000000000e+00  0.0000000000000000e+00  0.0000000000000000e+00  7.0710678118654746e-01  0.0000000000000000e+00
                         0.0000000000000000e+00  0.0000000000000000e+00  7.0710678118654746e-01  1.8000000000000000e+02  7.0710678118654746e-01  0.0000000000000000e+00  0.0000000000000000e+00  0.0000000000000000e+00
2.039000000000000e+00  0.0000000000000000e+00  0.0000000000000000e+00  7.0710678118654746e-01  0.0000000000000000e+00  7.0710678118654746e-01  0.0000000000000000e+00  0.0000000000000000e+00  0.0000000000000000e+00
                         7.0710678118654746e-01  0.0000000000000000e+00  0.0000000000000000e+00  0.0000000000000000e+00  0.0000000000000000e+00  0.0000000000000000e+00  7.0710678118654746e-01  1.8000000000000000e+02
                         7.0710678118654746e-01  0.0000000000000000e+00  0.0000000000000000e+00  0.0000000000000000e+00  0.0000000000000000e+00  0.0000000000000000e+00  7.0710678118654746e-01  0.0000000000000000e+00
                         0.0000000000000000e+00  0.0000000000000000e+00  7.0710678118654746e-01  1.8000000000000000e+02  7.0710678118654746e-01  0.0000000000000000e+00  0.0000000000000000e+00  0.0000000000000000e+00
2.040000000000000e+00  0.0000000000000000e+00  0.0000000000000000e+00  7.0710678118654746e-01  0.0000000000000000e+00  7.0710678118654746e-01  0.0000000000000000e+00  0.0000000000000000e+00  0.0000000000000000e+00
                         7.0710678118654746e-01  0.0000000000000000e+00  0.0000000000000000e+00  0.0000000000000000e+00  0.0000000000000000e+00  0.0000000000000000e+00  7.0710678118654746e-01  1.8000000000000000e+02
                         7.0710678118654746e-01  0.0000000000000000e+00  0.0000000000000000e+00  0.0000000000000000e+00  0.0000000000000000e+00  0.0000000000000000e+00  7.0710678118654746e-01  0.0000000000000000e+00
                         0.0000000000000000e+00  0.0000000000000000e+00  7.0710678118654746e-01  1.8000000000000000e+02  7.0710678118654746e-01  0.0000000000000000e+00  0.0000000000000000e+00  0.0000000000000000e+00
2.041000000000000e+00  0.0000000000000000e+00  0.0000000000000000e+00  7.0710678118654746e-01  0.0000000000000000e+00  7.0710678118654746e-01  0.0000000000000000e+00  0.0000000000000000e+00  0.0000000000000000e+00
                         7.0710678118654746e-01  0.0000000000000000e+00  0.0000000000000000e+00  0.0000000000000000e+00  0.0000000000000000e+00  0.0000000000000000e+00  7.0710678118654746e-01  1.8000000000000000e+02
                         7.0710678118654746e-01  0.0000000000000000e+00  0.0000000000000000e+00  0.0000000000000000e+00  0.0000000000000000e+00  0.0000000000000000e+00  7.0710678118654746e-01  0.0000000000000000e+00
                         0.0000000000000000e+00  0.0000000000000000e+00  7.0710678118654746e-01  1.8000000000000000e+02  7.0710678118654746e-01  0.0000000000000000e+00  0.0000000000000000e+00  0.0000000000000000e+00
2.042000000000000e+00  0.0000000000000000e+00  0.0000000000000000e+00  7.0710678118654746e-01  0.0000000000000000e+00  7.0710678118654746e-01  0.0000000000000000e+00  0.0000000000000000e+00  0.0000000000000000e+00
                         7.0710678118654746e-01  0.0000000000000000e+00  0.0000000000000000e+00  0.0000000000000000e+00  0.0000000000000000e+00  0.0000000000000000e+00  7.0710678118654746e-01  1.8000000000000000e+02
                         7.0710678118654746e-01  0.0000000000000000e+00  0.0000000000000000e+00  0.0000000000000000e+00  0.0000000000000000e+00  0.0000000000000000e+00  7.0710678118654746e-01  0.0000000000000000e+00
                         0.0000000000000000e+00  0.0000000000000000e+00  7.0710678118654746e-01  1.8000000000000000e+02  7.0710678118654746e-01  0.0000000000000000e+00  0.0000000000000000e+00  0.0000000000000000e+00
2.043000000000000e+00  0.0000000000000000e+00  0.0000000000000000e+00  7.0710678118654746e-01  0.0000000000000000e+00  7.0710678118654746e-01  0.0000000000000000e+00  0.0000000000000000e+00  0.0000000000000000e+00
                         7.0710678118654746e-01  0.0000000000000000e+00  0.0000000000000000e+00  0.0000000000000000e+00  0.0000000000000000e+00  0.0000000000000000e+00  7.0710678118654746e-01  1.8000000000000000e+02
                         7.0710678118654746e-01  0.0000000000000000e+00  0.0000000000000000e+00  0.0000000000000000e+00  0.0000000000000000e+00  0.0000000000000000e+00  7.0710678118654746e-01  0.0000000000000000e+00
                         0.0000000000000000e+00  0.0000000000000000e+00  7.0710678118654746e-01  1.8000000000000000e+02  7.0710678118654746e-01  0.0000000000000000e+00  0.0000000000000000e+00  0.0000000000000000e+00
2.044000000000000e+00  0.0000000000000000e+00  0.0000000000000000e+00  7.0710678118654746e-01  0.0000000000000000e+00  7.0710678118654746e-01  0.0000000000000000e+00  0.0000000000000000e+00  0.0000000000000000e+00
                         7.0710678118654746e-01  0.0000000000000000e+00  0.0000000000000000e+00  0.0000000000000000e+00  0.0000000000000000e+00  0.0000000000000000e+00  7.0710678118654746e-01  1.8000000000000000e+02
                         7.0710678118654746e-01  0.0000000000000000e+00  0.0000000000000000e+00  0.0000000000000000e+00  0.0000000000000000e+00  0.0000000000000000e+00  7.0710678118654746e-01  0.0000000000000000e+00
                         0.0000000000000000e+00  0.0000000000000000e+00  7.0710678118654746e-01  1.8000000000000000e+02  7.0710678118654746e-01  0.0000000000000000e+00  0.0000000000000000e+00  0.0000000000000000e+00
2.045000000000000e+00  0.0000000000000000e+00  0.0000000000000000e+00  7.0710678118654746e-01  0.0000000000000000e+00  7.0710678118654746e-01  0.0000000000000000e+00  0.0000000000000000e+00  0.0000000000000000e+00
                         7.0710678118654746e-01  0.0000000000000000e+00  0.0000000000000000e+00  0.0000000000000000e+00  0.0000000000000000e+00  0.0000000000000000e+00  7.0710678118654746e-01  1.8000000000000000e+02
                         7.0710678118654746e-01  0.0000000000000000e+00  0.0000000000000000e+00  0.0000000000000000e+00  0.0000000000000000e+00  0.0000000000000000e+00  7.0710678118654746e-01  0.0000000000000000e+00
                         0.0000000000000000e+00  0.0000000000000000e+00  7.0710678118654746e-01  1.8000000000000000e+02  7.0710678118654746e-01  0.0000000000000000e+00  0.0000000000000000e+00  0.0000000000000000e+00
2.046000000000000e+00  0.0000000000000000e+00  0.0000000000000000e+00  7.0710678118654746e-01  0.0000000000000000e+00  7.0710678118654746e-01  0.0000000000000000e+00  0.0000000000000000e+00  0.0000000000000000e+00
                         7.0710678118654746e-01  0.0000000000000000e+00  0.0000000000000000e+00  0.0000000000000000e+00  0.0000000000000000e+00  0.0000000000000000e+00  7.0710678118654746e-01  1.8000000000000000e+02
                         7.0710678118654746e-01  0.0000000000000000e+00  0.0000000000000000e+00  0.0000000000000000e+00  0.0000000000000000e+00  0.0000000000000000e+00  7.0710678118654746e-01  0.0000000000000000e+00
                         0.0000000000000000e+00  0.0000000000000000e+00  7.0710678118654746e-01  1.8000000000000000e+02  7.0710678118654746e-01  0.0000000000000000e+00  0.0000000000000000e+00  0.0000000000000000e+00
2.047000000000000e+00  0.0000000000000000e+00  0.0000000000000000e+00  7.0710678118654746e-01  0.0000000000000000e+00  7.0710678118654746e-01  0.0000000000000000e+00  0.0000000000000000e+00  0.0000000000000000e+00
                         7.0710678118654746e-01  0.0000000000000000e+00  0.0000000000000000e+00  0.0000000000000000e+00  0.0000000000000000e+00  0.0000000000000000e+00  7.0710678118654746e-01  1.8000000000000000e+02
                         7.0710678118654746e-01  0.0000000000000000e+00  0.0000000000000000e+00  0.0000000000000000e+00  0.0000000000000000e+00  0.0000000000000000e+00  7.0710678118654746e-01  0.0000000000000000e+00
                         0.0000000000000000e+00  0.0000000000000000e+00  7.0710678118654746e-01  1.8000000000000000e+02  7.0710678118654746e-01  0.0000000000000000e+00  0.0000000000000000e+00  0.0000000000000000e+00
2.048000000000000e+00  0.0000000000000000e+00  0.0000000000000000e+00  7.0710678118654746e-01  0.0000000000000000e+00  7.0710678118654746e-01  0.0000000000000000e+00  0.0000000000000000e+00  0.0000000000000000e+00
                         7.0710678118654746e-01  0.0000000000000000e+00  0.0000000000000000e+00  0.0000000000000000e+00  0.0000000000000000e+00  0.0000000000000000e+00  7.0710678118654746e-01  1.8000000000000000e+02
                         7.0710678118654746e-01  0.0000000000000000e+00  0.0000000000000000e+00  0.0000000000000000e+00  0.0000000000000000e+00  0.0000000000000000e+00  7.0710678118654746e-01  0.0000000000000000e+00
                         0.0000000000000000e+00  0.0000000000000000e+00  7.0710678118654746e-01  1.8000000000000000e+02  7.0710678118654746e-01  0.0000000000000000e+00  0.0000000000000000e+00  0.0000000000000000e+00
2.049000000000000e+00  0.0000000000000000e+00  0.0000000000000000e+00  7.0710678118654746e-01  0.0000000000000000e+00  7.0710678118654746e-01  0.0000000000000000e+00  0.0000000000000000e+00  0.0000000000000000e+00
                         7.0710678118654746e-01  0.0000000000000000e+00  0.0000000000000000e+00  0.0000000000000000e+00  0.0000000000000000e+00  0.0000000000000000e+00  7.0710678118654746e-01  1.8000000000000000e+02
                         7.0710678118654746e-01  0.0000000000000000e+00  0.0000000000000000e+00  0.0000000000000000e+00  0.0000000000000000e+00  0.0000000000000000e+00  7.0710678118654746e-01  0.0000000000000000e+00
                         0.0000000000000000e+00  0.0000000000000000e+00  7.0710678118654746e-01  1.8000000000000000e+02  7.0710678118654746e-01  0.0000000000000000e+00  0.0000000000000000e+00  0.0000000000000000e+00
2.050000000000000e+00  0.0000000000000000e+00  0.0000000000000000e+00  7.0710678118654746e-01  0.0000000000000000e+00  7.0710678118654746e-01  0.0000000000000000e+00  0.0000000000000000e+00  0.0000000000000000e+00
                         7.0710678118654746e-01  0.0000000000000000e+00  0.0000000000000000e+00  0.0000000000000000e+00  0.0000000000000000e+00  0.0000000000000000e+00  7.0710678118654746e-01  1.8000000000000000e+02
                         7.0710678118654746e-01  0.0000000000000000e+00  0.0000000000000000e+00  0.0000000000000000e+00  0.0000000000000000e+00  0.0000000000000000e+00  7.0710678118654746e-01  0.0000000000000000e+00
                         0.0000000000000000e+00  0.0000000000000000e+00  7.0710678118654746e-01  1.8000000000000000e+02  7.0710678118654746e-01  0.0000000000000000e+00  0.0000000000000000e+00  0.0000000000000000e+00
2.051000000000000e+00  0.0000000000000000e+00  0.0000000000000000e+00  7.0710678118654746e-01  0.0000000000000000e+00  7.0710678118654746e-01  0.0000000000000000e+00  0.0000000000000000e+00  0.0000000000000000e+00
                         7.0710678118654746e-01  0.0000000000000000e+00  0.0000000000000000e+00  0.0000000000000000e+00  0.0000000000000000e+00  0.0000000000000000e+00  7.0710678118654746e-01  1.8000000000000000e+02
                         7.0710678118654746e-01  0.0000000000000000e+00  0.0000000000000000e+00  0.0000000000000000e+00  0.0000000000000000e+00  0.0000000000000000e+00  7.0710678118654746e-01  0.0000000000000000e+00
                         0.0000000000000000e+00  0.0000000000000000e+00  7.0710678118654746e-01  1.8000000000000000e+02  7.0710678118654746e-01  0.0000000000000000e+00  0.0000000000000000e+00  0.0000000000000000e+00
2.052000000000000e+00  0.0000000000000000e+00  0.0000000000000000e+00  7.0710678118654746e-01  0.0000000000000000e+00  7.0710678118654746e-01  0.0000000000000000e+00  0.0000000000000000e+00  0.0000000000000000e+00
                         7.0710678118654746e-01  0.0000000000000000e+00  0.0000000000000000e+00  0.0000000000000000e+00  0.0000000000000000e+00  0.0000000000000000e+00  7.0710678118654746e-01  1.8000000000000000e+02
                         7.0710678118654746e-01  0.0000000000000000e+00  0.0000000000000000e+00  0.0000000000000000e+00  0.0000000000000000e+00  0.0000000000000000e+00  7.0710678118654746e-01  0.0000000000000000e+00
                         0.0000000000000000e+00  0.0000000000000000e+00  7.0710678118654746e-01  1.8000000000000000e+02  7.0710678118654746e-01  0.0000000000000000e+00  0.0000000000000000e+00  0.0000000000000000e+00
2.053000000000000e+00  0.0000000000000000e+00  0.0000000000000000e+00  7.0710678118654746e-01  0.0000000000000000e+00  7.0710678118654746e-01  0.0000000000000000e+00  0.0000000000000000e+00  0.0000000000000000e+00
                         7.0710678118654746e-01  0.0000000000000000e+00  0.0000000000000000e+00  0.0000000000000000e+00  0.0000000000000000e+00  0.0000000000000000e+00  7.0710678118654746e-01  1.8000000000000000e+02
                         7.0710678118654746e-01  0.0000000000000000e+00  0.0000000000000000e+00  0.0000000000000000e+00  0.0000000000000000e+00  0.0000000000000000e+00  7.0710678118654746e-01  0.0000000000000000e+00
                         0.0000000000000000e+00  0.0000000000000000e+00  7.0710678118654746e-01  1.8000000000000000e+02  7.0710678118654746e-01  0.0000000000000000e+00  0.0000000000000000e+00  0.0000000000000000e+00
2.054000000000000e+00  0.0000000000000000e+00  0.0000000000000000e+00  7.0710678118654746e-01  0.0000000000000000e+00  7.0710678118654746e-01  0.0000000000000000e+00  0.0000000000000000e+00  0.0000000000000000e+00
                         7.0710678118654746e-01  0.0000000000000000e+00  0.0000000000000000e+00  0.0000000000000000e+00  0.0000000000000000e+00  0.0000000000000000e+00  7.0710678118654746e-01  1.8000000000000000e+02
                         7.0710678118654746e-01  0.0000000000000000e+00  0.0000000000000000e+00  0.0000000000000000e+00  0.0000000000000000e+00  0.0000000000000000e+00  7.0710678118654746e-01  0.0000000000000000e+00
                         0.0000000000000000e+00  0.0000000000000000e+00  7.0710678118654746e-01  1.8000000000000000e+02  7.0710678118654746e-01  0.0000000000000000e+00  0.0000000000000000e+00  0.0000000000000000e+00
2.055000000000000e+00  0.0000000000000000e+00  0.0000000000000000e+00  7.0710678118654746e-01  0.0000000000000000e+00  7.0710678118654746e-01  0.0000000000000000e+00  0.0000000000000000e+00  0.0000000000000000e+00
                         7.0710678118654746e-01  0.0000000000000000e+00  0.0000000000000000e+00  0.0000000000000000e+00  0.0000000000000000e+00  0.0000000000000000e+00  7.0710678118654746e-01  1.8000000000000000e+02
                         7.0710678118654746e-01  0.0000000000000000e+00  0.0000000000000000e+00  0.0000000000000000e+00  0.0000000000000000e+00  0.0000000000000000e+00  7.0710678118654746e-01  0.0000000000000000e+00
                         0.0000000000000000e+00  0.0000000000000000e+00  7.0710678118654746e-01  1.8000000000000000e+02  7.0710678118654746e-01  0.0000000000000000e+00  0.0000000000000000e+00  0.0000000000000000e+00
2.056000000000000e+00  0.0000000000000000e+00  0.0000000000000000e+00  7.0710678118654746e-01  0.0000000000000000e+00  7.0710678118654746e-01  0.0000000000000000e+00  0.0000000000000000e+00  0.0000000000000000e+00
                         7.0710678118654746e-01  0.0000000000000000e+00  0.0000000000000000e+00  0.0000000000000000e+00  0.0000000000000000e+00  0.0000000000000000e+00  7.0710678118654746e-01  1.8000000000000000e+02
                         7.0710678118654746e-01  0.0000000000000000e+00  0.0000000000000000e+00  0.0000000000000000e+00  0.0000000000000000e+00  0.0000000000000000e+00  7.0710678118654746e-01  0.0000000000000000e+00
                         0.0000000000000000e+00  0.0000000000000000e+00  7.0710678118654746e-01  1.8000000000000000e+02  7.0710678118654746e-01  0.0000000000000000e+00  0.0000000000000000e+00  0.0000000000000000e+00
2.057000000000000e+00  0.0000000000000000e+00  0.0000000000000000e+00  7.0710678118654746e-01  0.0000000000000000e+00  7.0710678118654746e-01  0.0000000000000000e+00  0.0000000000000000e+00  0.0000000000000000e+00
                         7.0710678118654746e-01  0.0000000000000000e+00  0.0000000000000000e+00  0.0000000000000000e+00  0.0000000000000000e+00  0.0000000000000000e+00  7.0710678118654746e-01  1.8000000000000000e+02
                         7.0710678118654746e-01  0.0000000000000000e+00  0.0000000000000000e+00  0.0000000000000000e+00  0.0000000000000000e+00  0.0000000000000000e+00  7.0710678118654746e-01  0.0000000000000000e+00
                         0.0000000000000000e+00  0.0000000000000000e+00  7.0710678118654746e-01  1.8000000000000000e+02  7.0710678118654746e-01  0.0000000000000000e+00  0.0000000000000000e+00  0.0000000000000000e+00
2.058000000000000e+00  0.0000000000000000e+00  0.0000000000000000e+00  7.0710678118654746e-01  0.0000000000000000e+00  7.0710678118654746e-01  0.0000000000000000e+00  0.0000000000000000e+00  0.0000000000000000e+00
                         7.0710678118654746e-01  0.0000000000000000e+00  0.0000000000000000e+00  0.0000000000000000e+00  0.0000000000000000e+00  0.0000000000000000e+00  7.0710678118654746e-01  1.8000000000000000e+02
                         7.0710678118654746e-01  0.0000000000000000e+00  0.0000000000000000e+00  0.0000000000000000e+00  0.0000000000000000e+00  0.0000000000000000e+00  7.0710678118654746e-01  0.0000000000000000e+00
                         0.0000000000000000e+00  0.0000000000000000e+00  7.0710678118654746e-01  1.8000000000000000e+02  7.0710678118654746e-01  0.0000000000000000e+00  0.0000000000000000e+00  0.0000000000000000e+00
2.059000000000000e+00  0.0000000000000000e+00  0.0000000000000000e+00  7.0710678118654746e-01  0.0000000000000000e+00  7.0710678118654746e-01  0.0000000000000000e+00  0.0000000000000000e+00  0.0000000000000000e+00
                         7.0710678118654746e-01  0.0000000000000000e+00  0.0000000000000000e+00  0.0000000000000000e+00  0.0000000000000000e+00  0.0000000000000000e+00  7.0710678118654746e-01  1.8000000000000000e+02
                         7.0710678118654746e-01  0.0000000000000000e+00  0.0000000000000000e+00  0.0000000000000000e+00  0.0000000000000000e+00  0.0000000000000000e+00  7.0710678118654746e-01  0.0000000000000000e+00
                         0.0000000000000000e+00  0.0000000000000000e+00  7.0710678118654746e-01  1.8000000000000000e+02  7.0710678118654746e-01  0.0000000000000000e+00  0.0000000000000000e+00  0.0000000000000000e+00
2.060000000000000e+00  0.0000000000000000e+00  0.0000000000000000e+00  7.0710678118654746e-01  0.0000000000000000e+00  7.0710678118654746e-01  0.0000000000000000e+00  0.0000000000000000e+00  0.0000000000000000e+00
                         7.0710678118654746e-01  0.0000000000000000e+00  0.0000000000000000e+00  0.0000000000000000e+00  0.0000000000000000e+00  0.0000000000000000e+00  7.0710678118654746e-01  1.8000000000000000e+02
                         7.0710678118654746e-01  0.0000000000000000e+00  0.0000000000000000e+00  0.0000000000000000e+00  0.0000000000000000e+00  0.0000000000000000e+00  7.0710678118654746e-01  0.0000000000000000e+00
                         0.0000000000000000e+00  0.0000000000000000e+00  7.0710678118654746e-01  1.8000000000000000e+02  7.0710678118654746e-01  0.0000000000000000e+00  0.0000000000000000e+00  0.0000000000000000e+00
2.061000000000000e+00  0.0000000000000000e+00  0.0000000000000000e+00  7.0710678118654746e-01  0.0000000000000000e+00  7.0710678118654746e-01  0.0000000000000000e+00  0.0000000000000000e+00  0.0000000000000000e+00
                         7.0710678118654746e-01  0.0000000000000000e+00  0.0000000000000000e+00  0.0000000000000000e+00  0.0000000000000000e+00  0.0000000000000000e+00  7.0710678118654746e-01  1.8000000000000000e+02
                         7.0710678118654746e-01  0.0000000000000000e+00  0.0000000000000000e+00  0.0000000000000000e+00  0.0000000000000000e+00  0.0000000000000000e+00  7.0710678118654746e-01  0.0000000000000000e+00
                         0.0000000000000000e+00  0.0000000000000000e+00  7.0710678118654746e-01  1.8000000000000000e+02  7.0710678118654746e-01  0.0000000000000000e+00  0.0000000000000000e+00  0.0000000000000000e+00
2.062000000000000e+00  0.0000000000000000e+00  0.0000000000000000e+00  7.0710678118654746e-01  0.0000000000000000e+00  7.0710678118654746e-01  0.0000000000000000e+00  0.0000000000000000e+00  0.0000000000000000e+00
                         7.0710678118654746e-01  0.0000000000000000e+00  0.0000000000000000e+00  0.0000000000000000e+00  0.0000000000000000e+00  0.0000000000000000e+00  7.0710678118654746e-01  1.8000000000000000e+02
                         7.0710678118654746e-01  0.0000000000000000e+00  0.0000000000000000e+00  0.0000000000000000e+00  0.0000000000000000e+00  0.0000000000000000e+00  7.0710678118654746e-01  0.0000000000000000e+00
                         0.0000000000000000e+00  0.0000000000000000e+00  7.0710678118654746e-01  1.8000000000000000e+02  7.0710678118654746e-01  0.0000000000000000e+00  0.0000000000000000e+00  0.0000000000000000e+00
2.063000000000000e+00  0.0000000000000000e+00  0.0000000000000000e+00  7.0710678118654746e-01  0.0000000000000000e+00  7.0710678118654746e-01  0.0000000000000000e+00  0.0000000000000000e+00  0.0000000000000000e+00
                         7.0710678118654746e-01  0.0000000000000000e+00  0.0000000000000000e+00  0.0000000000000000e+00  0.0000000000000000e+00  0.0000000000000000e+00  7.0710678118654746e-01  1.8000000000000000e+02
                         7.0710678118654746e-01  0.0000000000000000e+00  0.0000000000000000e+00  0.0000000000000000e+00  0.0000000000000000e+00  0.0000000000000000e+00  7.0710678118654746e-01  0.0000000000000000e+00
                         0.0000000000000000e+00  0.0000000000000000e+00  7.0710678118654746e-01  1.8000000000000000e+02  7.0710678118654746e-01  0.0000000000000000e+00  0.0000000000000000e+00  0.0000000000000000e+00
2.064000000000000e+00  0.0000000000000000e+00  0.0000000000000000e+00  7.0710678118654746e-01  0.0000000000000000e+00  7.0710678118654746e-01  0.0000000000000000e+00  0.0000000000000000e+00  0.0000000000000000e+00
                         7.0710678118654746e-01  0.0000000000000000e+00  0.0000000000000000e+00  0.0000000000000000e+00  0.0000000000000000e+00  0.0000000000000000e+00  7.0710678118654746e-01  1.8000000000000000e+02
                         7.0710678118654746e-01  0.0000000000000000e+00  0.0000000000000000e+00  0.0000000000000000e+00  0.0000000000000000e+00  0.0000000000000000e+00  7.0710678118654746e-01  0.0000000000000000e+00
                         0.0000000000000000e+00  0.0000000000000000e+00  7.0710678118654746e-01  1.8000000000000000e+02  7.0710678118654746e-01  0.0000000000000000e+00  0.0000000000000000e+00  0.0000000000000000e+00
2.065000000000000e+00  0.0000000000000000e+00  0.0000000000000000e+00  7.0710678118654746e-01  0.0000000000000000e+00  7.0710678118654746e-01  0.0000000000000000e+00  0.0000000000000000e+00  0.0000000000000000e+00
                         7.0710678118654746e-01  0.0000000000000000e+00  0.0000000000000000e+00  0.0000000000000000e+00  0.0000000000000000e+00  0.0000000000000000e+00  7.0710678118654746e-01  1.8000000000000000e+02
                         7.0710678118654746e-01  0.0000000000000000e+00  0.0000000000000000e+00  0.0000000000000000e+00  0.0000000000000000e+00  0.0000000000000000e+00  7.0710678118654746e-01  0.0000000000000000e+00
                         0.0000000000000000e+00  0.0000000000000000e+00  7.0710678118654746e-01  1.8000000000000000e+02  7.0710678118654746e-01  0.0000000000000000e+00  0.0000000000000000e+00  0.0000000000000000e+00
2.066000000000000e+00  0.0000000000000000e+00  0.0000000000000000e+00  7.0710678118654746e-01  0.0000000000000000e+00  7.0710678118654746e-01  0.0000000000000000e+00  0.0000000000000000e+00  0.0000000000000000e+00
                         7.0710678118654746e-01  0.0000000000000000e+00  0.0000000000000000e+00  0.0000000000000000e+00  0.0000000000000000e+00  0.0000000000000000e+00  7.0710678118654746e-01  1.8000000000000000e+02
                         7.0710678118654746e-01  0.0000000000000000e+00  0.0000000000000000e+00  0.0000000000000000e+00  0.0000000000000000e+00  0.0000000000000000e+00  7.0710678118654746e-01  0.0000000000000000e+00
                         0.0000000000000000e+00  0.0000000000000000e+00  7.0710678118654746e-01  1.8000000000000000e+02  7.0710678118654746e-01  0.0000000000000000e+00  0.0000000000000000e+00  0.0000000000000000e+00
2.067000000000000e+00  0.0000000000000000e+00  0.0000000000000000e+00  7.0710678118654746e-01  0.0000000000000000e+00  7.0710678118654746e-01  0.0000000000000000e+00  0.0000000000000000e+00  0.0000000000000000e+00
                         7.0710678118654746e-01  0.0000000000000000e+00  0.0000000000000000e+00  0.0000000000000000e+00  0.0000000000000000e+00  0.0000000000000000e+00  7.0710678118654746e-01  1.8000000000000000e+02
                         7.0710678118654746e-01  0.0000000000000000e+00  0.0000000000000000e+00  0.0000000000000000e+00  0.0000000000000000e+00  0.0000000000000000e+00  7.0710678118654746e-01  0.0000000000000000e+00
                         0.0000000000000000e+00  0.0000000000000000e+00  7.0710678118654746e-01  1.8000000000000000e+02  7.0710678118654746e-01  0.0000000000000000e+00  0.0000000000000000e+00  0.0000000000000000e+00
2.068000000000000e+00  0.0000000000000000e+00  0.0000000000000000e+00  7.0710678118654746e-01  0.0000000000000000e+00  7.0710678118654746e-01  0.0000000000000000e+00  0.0000000000000000e+00  0.0000000000000000e+00
                         7.0710678118654746e-01  0.0000000000000000e+00  0.0000000000000000e+00  0.0000000000000000e+00  0.0000000000000000e+00  0.0000000000000000e+00  7.0710678118654746e-01  1.8000000000000000e+02
                         7.0710678118654746e-01  0.0000000000000000e+00  0.0000000000000000e+00  0.0000000000000000e+00  0.0000000000000000e+00  0.0000000000000000e+00  7.0710678118654746e-01  0.0000000000000000e+00
                         0.0000000000000000e+00  0.0000000000000000e+00  7.0710678118654746e-01  1.8000000000000000e+02  7.0710678118654746e-01  0.0000000000000000e+00  0.0000000000000000e+00  0.0000000000000000e+00
2.069000000000000e+00  0.0000000000000000e+00  0.0000000000000000e+00  7.0710678118654746e-01  0.0000000000000000e+00  7.0710678118654746e-01  0.0000000000000000e+00  0.0000000000000000e+00  0.0000000000000000e+00
                         7.0710678118654746e-01  0.0000000000000000e+00  0.0000000000000000e+00  0.0000000000000000e+00  0.0000000000000000e+00  0.0000000000000000e+00  7.0710678118654746e-01  1.8000000000000000e+02
                         7.0710678118654746e-01  0.0000000000000000e+00  0.0000000000000000e+00  0.0000000000000000e+00  0.0000000000000000e+00  0.0000000000000000e+00  7.0710678118654746e-01  0.0000000000000000e+00
                         0.0000000000000000e+00  0.0000000000000000e+00  7.0710678118654746e-01  1.8000000000000000e+02  7.0710678118654746e-01  0.0000000000000000e+00  0.0000000000000000e+00  0.0000000000000000e+00
2.070000000000000e+00  0.0000000000000000e+00  0.0000000000000000e+00  7.0710678118654746e-01  0.0000000000000000e+00  7.0710678118654746e-01  0.0000000000000000e+00  0.0000000000000000e+00  0.0000000000000000e+00
                         7.0710678118654746e-01  0.0000000000000000e+00  0.0000000000000000e+00  0.0000000000000000e+00  0.0000000000000000e+00  0.0000000000000000e+00  7.0710678118654746e-01  1.8000000000000000e+02
                         7.0710678118654746e-01  0.0000000000000000e+00  0.0000000000000000e+00  0.0000000000000000e+00  0.0000000000000000e+00  0.0000000000000000e+00  7.0710678118654746e-01  0.0000000000000000e+00
                         0.0000000000000000e+00  0.0000000000000000e+00  7.0710678118654746e-01  1.8000000000000000e+02  7.0710678118654746e-01  0.0000000000000000e+00  0.0000000000000000e+00  0.0000000000000000e+00
2.071000000000000e+00  0.0000000000000000e+00  0.0000000000000000e+00  7.0710678118654746e-01  0.0000000000000000e+00  7.0710678118654746e-01  0.0000000000000000e+00  0.0000000000000000e+00  0.0000000000000000e+00
                         7.0710678118654746e-01  0.0000000000000000e+00  0.0000000000000000e+00  0.0000000000000000e+00  0.0000000000000000e+00  0.0000000000000000e+00  7.0710678118654746e-01  1.8000000000000000e+02
                         7.0710678118654746e-01  0.0000000000000000e+00  0.0000000000000000e+00  0.0000000000000000e+00  0.0000000000000000e+00  0.0000000000000000e+00  7.0710678118654746e-01  0.0000000000000000e+00
                         0.0000000000000000e+00  0.0000000000000000e+00  7.0710678118654746e-01  1.8000000000000000e+02  7.0710678118654746e-01  0.0000000000000000e+00  0.0000000000000000e+00  0.0000000000000000e+00
2.072000000000000e+00  0.0000000000000000e+00  0.0000000000000000e+00  7.0710678118654746e-01  0.0000000000000000e+00  7.0710678118654746e-01  0.0000000000000000e+00  0.0000000000000000e+00  0.0000000000000000e+00
                         7.0710678118654746e-01  0.0000000000000000e+00  0.0000000000000000e+00  0.0000000000000000e+00  0.0000000000000000e+00  0.0000000000000000e+00  7.0710678118654746e-01  1.8000000000000000e+02
                         7.0710678118654746e-01  0.0000000000000000e+00  0.0000000000000000e+00  0.0000000000000000e+00  0.0000000000000000e+00  0.0000000000000000e+00  7.0710678118654746e-01  0.0000000000000000e+00
                         0.0000000000000000e+00  0.0000000000000000e+00  7.0710678118654746e-01  1.8000000000000000e+02  7.0710678118654746e-01  0.0000000000000000e+00  0.0000000000000000e+00  0.0000000000000000e+00
2.073000000000000e+00  0.0000000000000000e+00  0.0000000000000000e+00  7.0710678118654746e-01  0.0000000000000000e+00  7.0710678118654746e-01  0.0000000000000000e+00  0.0000000000000000e+00  0.0000000000000000e+00
                         7.0710678118654746e-01  0.0000000000000000e+00  0.0000000000000000e+00  0.0000000000000000e+00  0.0000000000000000e+00  0.0000000000000000e+00  7.0710678118654746e-01  1.8000000000000000e+02
                         7.0710678118654746e-01  0.0000000000000000e+00  0.0000000000000000e+00  0.0000000000000000e+00  0.0000000000000000e+00  0.0000000000000000e+00  7.0710678118654746e-01  0.0000000000000000e+00
                         0.0000000000000000e+00  0.0000000000000000e+00  7.0710678118654746e-01  1.8000000000000000e+02  7.0710678118654746e-01  0.0000000000000000e+00  0.0000000000000000e+00  0.0000000000000000e+00
2.074000000000000e+00  0.0000000000000000e+00  0.0000000000000000e+00  7.0710678118654746e-01  0.0000000000000000e+00  7.0710678118654746e-01  0.0000000000000000e+00  0.0000000000000000e+00  0.0000000000000000e+00
                         7.0710678118654746e-01  0.0000000000000000e+00  0.0000000000000000e+00  0.0000000000000000e+00  0.0000000000000000e+00  0.0000000000000000e+00  7.0710678118654746e-01  1.8000000000000000e+02
                         7.0710678118654746e-01  0.0000000000000000e+00  0.0000000000000000e+00  0.0000000000000000e+00  0.0000000000000000e+00  0.0000000000000000e+00  7.0710678118654746e-01  0.0000000000000000e+00
                         0.0000000000000000e+00  0.0000000000000000e+00  7.0710678118654746e-01  1.8000000000000000e+02  7.0710678118654746e-01  0.0000000000000000e+00  0.0000000000000000e+00  0.0000000000000000e+00
2.075000000000000e+00  0.0000000000000000e+00  0.0000000000000000e+00  7.0710678118654746e-01  0.0000000000000000e+00  7.0710678118654746e-01  0.0000000000000000e+00  0.0000000000000000e+00  0.0000000000000000e+00
                         7.0710678118654746e-01  0.0000000000000000e+00  0.0000000000000000e+00  0.0000000000000000e+00  0.0000000000000000e+00  0.0000000000000000e+00  7.0710678118654746e-01  1.8000000000000000e+02
                         7.0710678118654746e-01  0.0000000000000000e+00  0.0000000000000000e+00  0.0000000000000000e+00  0.0000000000000000e+00  0.0000000000000000e+00  7.0710678118654746e-01  0.0000000000000000e+00
                         0.0000000000000000e+00  0.0000000000000000e+00  7.0710678118654746e-01  1.8000000000000000e+02  7.0710678118654746e-01  0.0000000000000000e+00  0.0000000000000000e+00  0.0000000000000000e+00
2.076000000000000e+00  0.0000000000000000e+00  0.0000000000000000e+00  7.0710678118654746e-01  0.0000000000000000e+00  7.0710678118654746e-01  0.0000000000000000e+00  0.0000000000000000e+00  0.0000000000000000e+00
                         7.0710678118654746e-01  0.0000000000000000e+00  0.0000000000000000e+00  0.0000000000000000e+00  0.0000000000000000e+00  0.0000000000000000e+00  7.0710678118654746e-01  1.8000000000000000e+02
                         7.0710678118654746e-01  0.0000000000000000e+00  0.0000000000000000e+00  0.0000000000000000e+00  0.0000000000000000e+00  0.0000000000000000e+00  7.0710678118654746e-01  0.0000000000000000e+00
                         0.0000000000000000e+00  0.0000000000000000e+00  7.0710678118654746e-01  1.8000000000000000e+02  7.0710678118654746e-01  0.0000000000000000e+00  0.0000000000000000e+00  0.0000000000000000e+00
2.077000000000000e+00  0.0000000000000000e+00  0.0000000000000000e+00  7.0710678118654746e-01  0.0000000000000000e+00  7.0710678118654746e-01  0.0000000000000000e+00  0.0000000000000000e+00  0.0000000000000000e+00
                         7.0710678118654746e-01  0.0000000000000000e+00  0.0000000000000000e+00  0.0000000000000000e+00  0.0000000000000000e+00  0.0000000000000000e+00  7.0710678118654746e-01  1.8000000000000000e+02
                         7.0710678118654746e-01  0.0000000000000000e+00  0.0000000000000000e+00  0.0000000000000000e+00  0.0000000000000000e+00  0.0000000000000000e+00  7.0710678118654746e-01  0.0000000000000000e+00
                         0.0000000000000000e+00  0.0000000000000000e+00  7.0710678118654746e-01  1.8000000000000000e+02  7.0710678118654746e-01  0.0000000000000000e+00  0.0000000000000000e+00  0.0000000000000000e+00
2.078000000000000e+00  0.0000000000000000e+00  0.0000000000000000e+00  7.0710678118654746e-01  0.0000000000000000e+00  7.0710678118654746e-01  0.0000000000000000e+00  0.0000000000000000e+00  0.0000000000000000e+00
                         7.0710678118654746e-01  0.0000000000000000e+00  0.0000000000000000e+00  0.0000000000000000e+00  0.0000000000000000e+00  0.0000000000000000e+00  7.0710678118654746e-01  1.8000000000000000e+02
                         7.0710678118654746e-01  0.0000000000000000e+00  0.0000000000000000e+00  0.0000000000000000e+00  0.0000000000000000e+00  0.0000000000000000e+00  7.0710678118654746e-01  0.0000000000000000e+00
                         0.0000000000000000e+00  0.0000000000000000e+00  7.0710678118654746e-01  1.8000000000000000e+02  7.0710678118654746e-01  0.0000000000000000e+00  0.0000000000000000e+00  0.0000000000000000e+00
2.079000000000000e+00  0.0000000000000000e+00  0.0000000000000000e+00  7.0710678118654746e-01  0.0000000000000000e+00  7.0710678118654746e-01  0.0000000000000000e+00  0.0000000000000000e+00  0.0000000000000000e+00
                         7.0710678118654746e-01  0.0000000000000000e+00  0.0000000000000000e+00  0.0000000000000000e+00  0.0000000000000000e+00  0.0000000000000000e+00  7.0710678118654746e-01  1.8000000000000000e+02
                         7.0710678118654746e-01  0.0000000000000000e+00  0.0000000000000000e+00  0.0000000000000000e+00  0.0000000000000000e+00  0.0000000000000000e+00  7.0710678118654746e-01  0.0000000000000000e+00
                         0.0000000000000000e+00  0.0000000000000000e+00  7.0710678118654746e-01  1.8000000000000000e+02  7.0710678118654746e-01  0.0000000000000000e+00  0.0000000000000000e+00  0.0000000000000000e+00
2.080000000000000e+00  0.0000000000000000e+00  0.0000000000000000e+00  7.0710678118654746e-01  0.0000000000000000e+00  7.0710678118654746e-01  0.0000000000000000e+00  0.0000000000000000e+00  0.0000000000000000e+00
                         7.0710678118654746e-01  0.0000000000000000e+00  0.0000000000000000e+00  0.0000000000000000e+00  0.0000000000000000e+00  0.0000000000000000e+00  7.0710678118654746e-01  1.8000000000000000e+02
                         7.0710678118654746e-01  0.0000000000000000e+00  0.0000000000000000e+00  0.0000000000000000e+00  0.0000000000000000e+00  0.0000000000000000e+00  7.0710678118654746e-01  0.0000000000000000e+00
                         0.0000000000000000e+00  0.0000000000000000e+00  7.0710678118654746e-01  1.8000000000000000e+02  7.0710678118654746e-01  0.0000000000000000e+00  0.0000000000000000e+00  0.0000000000000000e+00
2.081000000000000e+00  0.0000000000000000e+00  0.0000000000000000e+00  7.0710678118654746e-01  0.0000000000000000e+00  7.0710678118654746e-01  0.0000000000000000e+00  0.0000000000000000e+00  0.0000000000000000e+00
                         7.0710678118654746e-01  0.0000000000000000e+00  0.0000000000000000e+00  0.0000000000000000e+00  0.0000000000000000e+00  0.0000000000000000e+00  7.0710678118654746e-01  1.8000000000000000e+02
                         7.0710678118654746e-01  0.0000000000000000e+00  0.0000000000000000e+00  0.0000000000000000e+00  0.0000000000000000e+00  0.0000000000000000e+00  7.0710678118654746e-01  0.0000000000000000e+00
                         0.0000000000000000e+00  0.0000000000000000e+00  7.0710678118654746e-01  1.8000000000000000e+02  7.0710678118654746e-01  0.0000000000000000e+00  0.0000000000000000e+00  0.0000000000000000e+00
2.082000000000000e+00  0.0000000000000000e+00  0.0000000000000000e+00  7.0710678118654746e-01  0.0000000000000000e+00  7.0710678118654746e-01  0.0000000000000000e+00  0.0000000000000000e+00  0.0000000000000000e+00
                         7.0710678118654746e-01  0.0000000000000000e+00  0.0000000000000000e+00  0.0000000000000000e+00  0.0000000000000000e+00  0.0000000000000000e+00  7.0710678118654746e-01  1.8000000000000000e+02
                         7.0710678118654746e-01  0.0000000000000000e+00  0.0000000000000000e+00  0.0000000000000000e+00  0.0000000000000000e+00  0.0000000000000000e+00  7.0710678118654746e-01  0.0000000000000000e+00
                         0.0000000000000000e+00  0.0000000000000000e+00  7.0710678118654746e-01  1.8000000000000000e+02  7.0710678118654746e-01  0.0000000000000000e+00  0.0000000000000000e+00  0.0000000000000000e+00
2.083000000000000e+00  0.0000000000000000e+00  0.0000000000000000e+00  7.0710678118654746e-01  0.0000000000000000e+00  7.0710678118654746e-01  0.0000000000000000e+00  0.0000000000000000e+00  0.0000000000000000e+00
                         7.0710678118654746e-01  0.0000000000000000e+00  0.0000000000000000e+00  0.0000000000000000e+00  0.0000000000000000e+00  0.0000000000000000e+00  7.0710678118654746e-01  1.8000000000000000e+02
                         7.0710678118654746e-01  0.0000000000000000e+00  0.0000000000000000e+00  0.0000000000000000e+00  0.0000000000000000e+00  0.0000000000000000e+00  7.0710678118654746e-01  0.0000000000000000e+00
                         0.0000000000000000e+00  0.0000000000000000e+00  7.0710678118654746e-01  1.8000000000000000e+02  7.0710678118654746e-01  0.0000000000000000e+00  0.0000000000000000e+00  0.0000000000000000e+00
2.084000000000000e+00  0.0000000000000000e+00  0.0000000000000000e+00  7.0710678118654746e-01  0.0000000000000000e+00  7.0710678118654746e-01  0.0000000000000000e+00  0.0000000000000000e+00  0.0000000000000000e+00
                         7.0710678118654746e-01  0.0000000000000000e+00  0.0000000000000000e+00  0.0000000000000000e+00  0.0000000000000000e+00  0.0000000000000000e+00  7.0710678118654746e-01  1.8000000000000000e+02
                         7.0710678118654746e-01  0.0000000000000000e+00  0.0000000000000000e+00  0.0000000000000000e+00  0.0000000000000000e+00  0.0000000000000000e+00  7.0710678118654746e-01  0.0000000000000000e+00
                         0.0000000000000000e+00  0.0000000000000000e+00  7.0710678118654746e-01  1.8000000000000000e+02  7.0710678118654746e-01  0.0000000000000000e+00  0.0000000000000000e+00  0.0000000000000000e+00
2.085000000000000e+00  0.0000000000000000e+00  0.0000000000000000e+00  7.0710678118654746e-01  0.0000000000000000e+00  7.0710678118654746e-01  0.0000000000000000e+00  0.0000000000000000e+00  0.0000000000000000e+00
                         7.0710678118654746e-01  0.0000000000000000e+00  0.0000000000000000e+00  0.0000000000000000e+00  0.0000000000000000e+00  0.0000000000000000e+00  7.0710678118654746e-01  1.8000000000000000e+02
                         7.0710678118654746e-01  0.0000000000000000e+00  0.0000000000000000e+00  0.0000000000000000e+00  0.0000000000000000e+00  0.0000000000000000e+00  7.0710678118654746e-01  0.0000000000000000e+00
                         0.0000000000000000e+00  0.0000000000000000e+00  7.0710678118654746e-01  1.8000000000000000e+02  7.0710678118654746e-01  0.0000000000000000e+00  0.0000000000000000e+00  0.0000000000000000e+00
2.086000000000000e+00  0.0000000000000000e+00  0.0000000000000000e+00  7.0710678118654746e-01  0.0000000000000000e+00  7.0710678118654746e-01  0.0000000000000000e+00  0.0000000000000000e+00  0.0000000000000000e+00
                         7.0710678118654746e-01  0.0000000000000000e+00  0.0000000000000000e+00  0.0000000000000000e+00  0.0000000000000000e+00  0.0000000000000000e+00  7.0710678118654746e-01  1.8000000000000000e+02
                         7.0710678118654746e-01  0.0000000000000000e+00  0.0000000000000000e+00  0.0000000000000000e+00  0.0000000000000000e+00  0.0000000000000000e+00  7.0710678118654746e-01  0.0000000000000000e+00
                         0.0000000000000000e+00  0.0000000000000000e+00  7.0710678118654746e-01  1.8000000000000000e+02  7.0710678118654746e-01  0.0000000000000000e+00  0.0000000000000000e+00  0.0000000000000000e+00
2.087000000000000e+00  0.0000000000000000e+00  0.0000000000000000e+00  7.0710678118654746e-01  0.0000000000000000e+00  7.0710678118654746e-01  0.0000000000000000e+00  0.0000000000000000e+00  0.0000000000000000e+00
                         7.0710678118654746e-01  0.0000000000000000e+00  0.0000000000000000e+00  0.0000000000000000e+00  0.0000000000000000e+00  0.0000000000000000e+00  7.0710678118654746e-01  1.8000000000000000e+02
                         7.0710678118654746e-01  0.0000000000000000e+00  0.0000000000000000e+00  0.0000000000000000e+00  0.0000000000000000e+00  0.0000000000000000e+00  7.0710678118654746e-01  0.0000000000000000e+00
                         0.0000000000000000e+00  0.0000000000000000e+00  7.0710678118654746e-01  1.8000000000000000e+02  7.0710678118654746e-01  0.0000000000000000e+00  0.0000000000000000e+00  0.0000000000000000e+00
2.088000000000000e+00  0.0000000000000000e+00  0.0000000000000000e+00  7.0710678118654746e-01  0.0000000000000000e+00  7.0710678118654746e-01  0.0000000000000000e+00  0.0000000000000000e+00  0.0000000000000000e+00
                         7.0710678118654746e-01  0.0000000000000000e+00  0.0000000000000000e+00  0.0000000000000000e+00  0.0000000000000000e+00  0.0000000000000000e+00  7.0710678118654746e-01  1.8000000000000000e+02
                         7.0710678118654746e-01  0.0000000000000000e+00  0.0000000000000000e+00  0.0000000000000000e+00  0.0000000000000000e+00  0.0000000000000000e+00  7.0710678118654746e-01  0.0000000000000000e+00
                         0.0000000000000000e+00  0.0000000000000000e+00  7.0710678118654746e-01  1.8000000000000000e+02  7.0710678118654746e-01  0.0000000000000000e+00  0.0000000000000000e+00  0.0000000000000000e+00
2.089000000000000e+00  0.0000000000000000e+00  0.0000000000000000e+00  7.0710678118654746e-01  0.0000000000000000e+00  7.0710678118654746e-01  0.0000000000000000e+00  0.0000000000000000e+00  0.0000000000000000e+00
                         7.0710678118654746e-01  0.0000000000000000e+00  0.0000000000000000e+00  0.0000000000000000e+00  0.0000000000000000e+00  0.0000000000000000e+00  7.0710678118654746e-01  1.8000000000000000e+02
                         7.0710678118654746e-01  0.0000000000000000e+00  0.0000000000000000e+00  0.0000000000000000e+00  0.0000000000000000e+00  0.0000000000000000e+00  7.0710678118654746e-01  0.0000000000000000e+00
                         0.0000000000000000e+00  0.0000000000000000e+00  7.0710678118654746e-01  1.8000000000000000e+02  7.0710678118654746e-01  0.0000000000000000e+00  0.0000000000000000e+00  0.0000000000000000e+00
2.090000000000000e+00  0.0000000000000000e+00  0.0000000000000000e+00  7.0710678118654746e-01  0.0000000000000000e+00  7.0710678118654746e-01  0.0000000000000000e+00  0.0000000000000000e+00  0.0000000000000000e+00
                         7.0710678118654746e-01  0.0000000000000000e+00  0.0000000000000000e+00  0.0000000000000000e+00  0.0000000000000000e+00  0.0000000000000000e+00  7.0710678118654746e-01  1.8000000000000000e+02
                         7.0710678118654746e-01  0.0000000000000000e+00  0.0000000000000000e+00  0.0000000000000000e+00  0.0000000000000000e+00  0.0000000000000000e+00  7.0710678118654746e-01  0.0000000000000000e+00
                         0.0000000000000000e+00  0.0000000000000000e+00  7.0710678118654746e-01  1.8000000000000000e+02  7.0710678118654746e-01  0.0000000000000000e+00  0.0000000000000000e+00  0.0000000000000000e+00
2.091000000000000e+00  0.0000000000000000e+00  0.0000000000000000e+00  7.0710678118654746e-01  0.0000000000000000e+00  7.0710678118654746e-01  0.0000000000000000e+00  0.0000000000000000e+00  0.0000000000000000e+00
                         7.0710678118654746e-01  0.0000000000000000e+00  0.0000000000000000e+00  0.0000000000000000e+00  0.0000000000000000e+00  0.0000000000000000e+00  7.0710678118654746e-01  1.8000000000000000e+02
                         7.0710678118654746e-01  0.0000000000000000e+00  0.0000000000000000e+00  0.0000000000000000e+00  0.0000000000000000e+00  0.0000000000000000e+00  7.0710678118654746e-01  0.0000000000000000e+00
                         0.0000000000000000e+00  0.0000000000000000e+00  7.0710678118654746e-01  1.8000000000000000e+02  7.0710678118654746e-01  0.0000000000000000e+00  0.0000000000000000e+00  0.0000000000000000e+00
2.092000000000000e+00  0.0000000000000000e+00  0.0000000000000000e+00  7.0710678118654746e-01  0.0000000000000000e+00  7.0710678118654746e-01  0.0000000000000000e+00  0.0000000000000000e+00  0.0000000000000000e+00
                         7.0710678118654746e-01  0.0000000000000000e+00  0.0000000000000000e+00  0.0000000000000000e+00  0.0000000000000000e+00  0.0000000000000000e+00  7.0710678118654746e-01  1.8000000000000000e+02
                         7.0710678118654746e-01  0.0000000000000000e+00  0.0000000000000000e+00  0.0000000000000000e+00  0.0000000000000000e+00  0.0000000000000000e+00  7.0710678118654746e-01  0.0000000000000000e+00
                         0.0000000000000000e+00  0.0000000000000000e+00  7.0710678118654746e-01  1.8000000000000000e+02  7.0710678118654746e-01  0.0000000000000000e+00  0.0000000000000000e+00  0.0000000000000000e+00
2.093000000000000e+00  0.0000000000000000e+00  0.0000000000000000e+00  7.0710678118654746e-01  0.0000000000000000e+00  7.0710678118654746e-01  0.0000000000000000e+00  0.0000000000000000e+00  0.0000000000000000e+00
                         7.0710678118654746e-01  0.0000000000000000e+00  0.0000000000000000e+00  0.0000000000000000e+00  0.0000000000000000e+00  0.0000000000000000e+00  7.0710678118654746e-01  1.8000000000000000e+02
                         7.0710678118654746e-01  0.0000000000000000e+00  0.0000000000000000e+00  0.0000000000000000e+00  0.0000000000000000e+00  0.0000000000000000e+00  7.0710678118654746e-01  0.0000000000000000e+00
                         0.0000000000000000e+00  0.0000000000000000e+00  7.0710678118654746e-01  1.8000000000000000e+02  7.0710678118654746e-01  0.0000000000000000e+00  0.0000000000000000e+00  0.0000000000000000e+00
2.094000000000000e+00  0.0000000000000000e+00  0.0000000000000000e+00  7.0710678118654746e-01  0.0000000000000000e+00  7.0710678118654746e-01  0.0000000000000000e+00  0.0000000000000000e+00  0.0000000000000000e+00
                         7.0710678118654746e-01  0.0000000000000000e+00  0.0000000000000000e+00  0.0000000000000000e+00  0.0000000000000000e+00  0.0000000000000000e+00  7.0710678118654746e-01  1.8000000000000000e+02
                         7.0710678118654746e-01  0.0000000000000000e+00  0.0000000000000000e+00  0.0000000000000000e+00  0.0000000000000000e+00  0.0000000000000000e+00  7.0710678118654746e-01  0.0000000000000000e+00
                         0.0000000000000000e+00  0.0000000000000000e+00  7.0710678118654746e-01  1.8000000000000000e+02  7.0710678118654746e-01  0.0000000000000000e+00  0.0000000000000000e+00  0.0000000000000000e+00
2.095000000000000e+00  0.0000000000000000e+00  0.0000000000000000e+00  7.0710678118654746e-01  0.0000000000000000e+00  7.0710678118654746e-01  0.0000000000000000e+00  0.0000000000000000e+00  0.0000000000000000e+00
                         7.0710678118654746e-01  0.0000000000000000e+00  0.0000000000000000e+00  0.0000000000000000e+00  0.0000000000000000e+00  0.0000000000000000e+00  7.0710678118654746e-01  1.8000000000000000e+02
                         7.0710678118654746e-01  0.0000000000000000e+00  0.0000000000000000e+00  0.0000000000000000e+00  0.0000000000000000e+00  0.0000000000000000e+00  7.0710678118654746e-01  0.0000000000000000e+00
                         0.0000000000000000e+00  0.0000000000000000e+00  7.0710678118654746e-01  1.8000000000000000e+02  7.0710678118654746e-01  0.0000000000000000e+00  0.0000000000000000e+00  0.0000000000000000e+00
2.096000000000000e+00  0.0000000000000000e+00  0.0000000000000000e+00  7.0710678118654746e-01  0.0000000000000000e+00  7.0710678118654746e-01  0.0000000000000000e+00  0.0000000000000000e+00  0.0000000000000000e+00
                         7.0710678118654746e-01  0.0000000000000000e+00  0.0000000000000000e+00  0.0000000000000000e+00  0.0000000000000000e+00  0.0000000000000000e+00  7.0710678118654746e-01  1.8000000000000000e+02
                         7.0710678118654746e-01  0.0000000000000000e+00  0.0000000000000000e+00  0.0000000000000000e+00  0.0000000000000000e+00  0.0000000000000000e+00  7.0710678118654746e-01  0.0000000000000000e+00
                         0.0000000000000000e+00  0.0000000000000000e+00  7.0710678118654746e-01  1.8000000000000000e+02  7.0710678118654746e-01  0.0000000000000000e+00  0.0000000000000000e+00  0.0000000000000000e+00
2.097000000000000e+00  0.0000000000000000e+00  0.0000000000000000e+00  7.0710678118654746e-01  0.0000000000000000e+00  7.0710678118654746e-01  0.0000000000000000e+00  0.0000000000000000e+00  0.0000000000000000e+00
                         7.0710678118654746e-01  0.0000000000000000e+00  0.0000000000000000e+00  0.0000000000000000e+00  0.0000000000000000e+00  0.0000000000000000e+00  7.0710678118654746e-01  1.8000000000000000e+02
                         7.0710678118654746e-01  0.0000000000000000e+00  0.0000000000000000e+00  0.0000000000000000e+00  0.0000000000000000e+00  0.0000000000000000e+00  7.0710678118654746e-01  0.0000000000000000e+00
                         0.0000000000000000e+00  0.0000000000000000e+00  7.0710678118654746e-01  1.8000000000000000e+02  7.0710678118654746e-01  0.0000000000000000e+00  0.0000000000000000e+00  0.0000000000000000e+00
2.098000000000000e+00  0.0000000000000000e+00  0.0000000000000000e+00  7.0710678118654746e-01  0.0000000000000000e+00  7.0710678118654746e-01  0.0000000000000000e+00  0.0000000000000000e+00  0.0000000000000000e+00
                         7.0710678118654746e-01  0.0000000000000000e+00  0.0000000000000000e+00  0.0000000000000000e+00  0.0000000000000000e+00  0.0000000000000000e+00  7.0710678118654746e-01  1.8000000000000000e+02
                         7.0710678118654746e-01  0.0000000000000000e+00  0.0000000000000000e+00  0.0000000000000000e+00  0.0000000000000000e+00  0.0000000000000000e+00  7.0710678118654746e-01  0.0000000000000000e+00
                         0.0000000000000000e+00  0.0000000000000000e+00  7.0710678118654746e-01  1.8000000000000000e+02  7.0710678118654746e-01  0.0000000000000000e+00  0.0000000000000000e+00  0.0000000000000000e+00
2.099000000000000e+00  0.0000000000000000e+00  0.0000000000000000e+00  7.0710678118654746e-01  0.0000000000000000e+00  7.0710678118654746e-01  0.0000000000000000e+00  0.0000000000000000e+00  0.0000000000000000e+00
                         7.0710678118654746e-01  0.0000000000000000e+00  0.0000000000000000e+00  0.0000000000000000e+00  0.0000000000000000e+00  0.0000000000000000e+00  7.0710678118654746e-01  1.8000000000000000e+02
                         7.0710678118654746e-01  0.0000000000000000e+00  0.0000000000000000e+00  0.0000000000000000e+00  0.0000000000000000e+00  0.0000000000000000e+00  7.0710678118654746e-01  0.0000000000000000e+00
                         0.0000000000000000e+00  0.0000000000000000e+00  7.0710678118654746e-01  1.8000000000000000e+02  7.0710678118654746e-01  0.0000000000000000e+00  0.0000000000000000e+00  0.0000000000000000e+00
2.100000000000000e+00  0.0000000000000000e+00  0.0000000000000000e+00  7.0710678118654746e-01  0.0000000000000000e+00  7.0710678118654746e-01  0.0000000000000000e+00  0.0000000000000000e+00  0.0000000000000000e+00
                         7.0710678118654746e-01  0.0000000000000000e+00  0.0000000000000000e+00  0.0000000000000000e+00  0.0000000000000000e+00  0.0000000000000000e+00  7.0710678118654746e-01  1.8000000000000000e+02
                         7.0710678118654746e-01  0.0000000000000000e+00  0.0000000000000000e+00  0.0000000000000000e+00  0.0000000000000000e+00  0.0000000000000000e+00  7.0710678118654746e-01  0.0000000000000000e+00
                         0.0000000000000000e+00  0.0000000000000000e+00  7.0710678118654746e-01  1.8000000000000000e+02  7.0710678118654746e-01  0.0000000000000000e+00  0.0000000000000000e+00  0.0000000000000000e+00
2.101000000000000e+00  0.0000000000000000e+00  0.0000000000000000e+00  7.0710678118654746e-01  0.0000000000000000e+00  7.0710678118654746e-01  0.0000000000000000e+00  0.0000000000000000e+00  0.0000000000000000e+00
                         7.0710678118654746e-01  0.0000000000000000e+00  0.0000000000000000e+00  0.0000000000000000e+00  0.0000000000000000e+00  0.0000000000000000e+00  7.0710678118654746e-01  1.8000000000000000e+02
                         7.0710678118654746e-01  0.0000000000000000e+00  0.0000000000000000e+00  0.0000000000000000e+00  0.0000000000000000e+00  0.0000000000000000e+00  7.0710678118654746e-01  0.0000000000000000e+00
                         0.0000000000000000e+00  0.0000000000000000e+00  7.0710678118654746e-01  1.8000000000000000e+02  7.0710678118654746e-01  0.0000000000000000e+00  0.0000000000000000e+00  0.0000000000000000e+00
2.102000000000000e+00  0.0000000000000000e+00  0.0000000000000000e+00  7.0710678118654746e-01  0.0000000000000000e+00  7.0710678118654746e-01  0.0000000000000000e+00  0.0000000000000000e+00  0.0000000000000000e+00
                         7.0710678118654746e-01  0.0000000000000000e+00  0.0000000000000000e+00  0.0000000000000000e+00  0.0000000000000000e+00  0.0000000000000000e+00  7.0710678118654746e-01  1.8000000000000000e+02
                         7.0710678118654746e-01  0.0000000000000000e+00  0.0000000000000000e+00  0.0000000000000000e+00  0.0000000000000000e+00  0.0000000000000000e+00  7.0710678118654746e-01  0.0000000000000000e+00
                         0.0000000000000000e+00  0.0000000000000000e+00  7.0710678118654746e-01  1.8000000000000000e+02  7.0710678118654746e-01  0.0000000000000000e+00  0.0000000000000000e+00  0.0000000000000000e+00
2.103000000000000e+00  0.0000000000000000e+00  0.0000000000000000e+00  7.0710678118654746e-01  0.0000000000000000e+00  7.0710678118654746e-01  0.0000000000000000e+00  0.0000000000000000e+00  0.0000000000000000e+00
                         7.0710678118654746e-01  0.0000000000000000e+00  0.0000000000000000e+00  0.0000000000000000e+00  0.0000000000000000e+00  0.0000000000000000e+00  7.0710678118654746e-01  1.8000000000000000e+02
                         7.0710678118654746e-01  0.0000000000000000e+00  0.0000000000000000e+00  0.0000000000000000e+00  0.0000000000000000e+00  0.0000000000000000e+00  7.0710678118654746e-01  0.0000000000000000e+00
                         0.0000000000000000e+00  0.0000000000000000e+00  7.0710678118654746e-01  1.8000000000000000e+02  7.0710678118654746e-01  0.0000000000000000e+00  0.0000000000000000e+00  0.0000000000000000e+00
2.104000000000000e+00  0.0000000000000000e+00  0.0000000000000000e+00  7.0710678118654746e-01  0.0000000000000000e+00  7.0710678118654746e-01  0.0000000000000000e+00  0.0000000000000000e+00  0.0000000000000000e+00
                         7.0710678118654746e-01  0.0000000000000000e+00  0.0000000000000000e+00  0.0000000000000000e+00  0.0000000000000000e+00  0.0000000000000000e+00  7.0710678118654746e-01  1.8000000000000000e+02
                         7.0710678118654746e-01  0.0000000000000000e+00  0.0000000000000000e+00  0.0000000000000000e+00  0.0000000000000000e+00  0.0000000000000000e+00  7.0710678118654746e-01  0.0000000000000000e+00
                         0.0000000000000000e+00  0.0000000000000000e+00  7.0710678118654746e-01  1.8000000000000000e+02  7.0710678118654746e-01  0.0000000000000000e+00  0.0000000000000000e+00  0.0000000000000000e+00
2.105000000000000e+00  0.0000000000000000e+00  0.0000000000000000e+00  7.0710678118654746e-01  0.0000000000000000e+00  7.0710678118654746e-01  0.0000000000000000e+00  0.0000000000000000e+00  0.0000000000000000e+00
                         7.0710678118654746e-01  0.0000000000000000e+00  0.0000000000000000e+00  0.0000000000000000e+00  0.0000000000000000e+00  0.0000000000000000e+00  7.0710678118654746e-01  1.8000000000000000e+02
                         7.0710678118654746e-01  0.0000000000000000e+00  0.0000000000000000e+00  0.0000000000000000e+00  0.0000000000000000e+00  0.0000000000000000e+00  7.0710678118654746e-01  0.0000000000000000e+00
                         0.0000000000000000e+00  0.0000000000000000e+00  7.0710678118654746e-01  1.8000000000000000e+02  7.0710678118654746e-01  0.0000000000000000e+00  0.0000000000000000e+00  0.0000000000000000e+00
2.106000000000000e+00  0.0000000000000000e+00  0.0000000000000000e+00  7.0710678118654746e-01  0.0000000000000000e+00  7.0710678118654746e-01  0.0000000000000000e+00  0.0000000000000000e+00  0.0000000000000000e+00
                         7.0710678118654746e-01  0.0000000000000000e+00  0.0000000000000000e+00  0.0000000000000000e+00  0.0000000000000000e+00  0.0000000000000000e+00  7.0710678118654746e-01  1.8000000000000000e+02
                         7.0710678118654746e-01  0.0000000000000000e+00  0.0000000000000000e+00  0.0000000000000000e+00  0.0000000000000000e+00  0.0000000000000000e+00  7.0710678118654746e-01  0.0000000000000000e+00
                         0.0000000000000000e+00  0.0000000000000000e+00  7.0710678118654746e-01  1.8000000000000000e+02  7.0710678118654746e-01  0.0000000000000000e+00  0.0000000000000000e+00  0.0000000000000000e+00
2.107000000000000e+00  0.0000000000000000e+00  0.0000000000000000e+00  7.0710678118654746e-01  0.0000000000000000e+00  7.0710678118654746e-01  0.0000000000000000e+00  0.0000000000000000e+00  0.0000000000000000e+00
                         7.0710678118654746e-01  0.0000000000000000e+00  0.0000000000000000e+00  0.0000000000000000e+00  0.0000000000000000e+00  0.0000000000000000e+00  7.0710678118654746e-01  1.8000000000000000e+02
                         7.0710678118654746e-01  0.0000000000000000e+00  0.0000000000000000e+00  0.0000000000000000e+00  0.0000000000000000e+00  0.0000000000000000e+00  7.0710678118654746e-01  0.0000000000000000e+00
                         0.0000000000000000e+00  0.0000000000000000e+00  7.0710678118654746e-01  1.8000000000000000e+02  7.0710678118654746e-01  0.0000000000000000e+00  0.0000000000000000e+00  0.0000000000000000e+00
2.108000000000000e+00  0.0000000000000000e+00  0.0000000000000000e+00  7.0710678118654746e-01  0.0000000000000000e+00  7.0710678118654746e-01  0.0000000000000000e+00  0.0000000000000000e+00  0.0000000000000000e+00
                         7.0710678118654746e-01  0.0000000000000000e+00  0.0000000000000000e+00  0.0000000000000000e+00  0.0000000000000000e+00  0.0000000000000000e+00  7.0710678118654746e-01  1.8000000000000000e+02
                         7.0710678118654746e-01  0.0000000000000000e+00  0.0000000000000000e+00  0.0000000000000000e+00  0.0000000000000000e+00  0.0000000000000000e+00  7.0710678118654746e-01  0.0000000000000000e+00
                         0.0000000000000000e+00  0.0000000000000000e+00  7.0710678118654746e-01  1.8000000000000000e+02  7.0710678118654746e-01  0.0000000000000000e+00  0.0000000000000000e+00  0.0000000000000000e+00
2.109000000000000e+00  0.0000000000000000e+00  0.0000000000000000e+00  7.0710678118654746e-01  0.0000000000000000e+00  7.0710678118654746e-01  0.0000000000000000e+00  0.0000000000000000e+00  0.0000000000000000e+00
                         7.0710678118654746e-01  0.0000000000000000e+00  0.0000000000000000e+00  0.0000000000000000e+00  0.0000000000000000e+00  0.0000000000000000e+00  7.0710678118654746e-01  1.8000000000000000e+02
                         7.0710678118654746e-01  0.0000000000000000e+00  0.0000000000000000e+00  0.0000000000000000e+00  0.0000000000000000e+00  0.0000000000000000e+00  7.0710678118654746e-01  0.0000000000000000e+00
                         0.0000000000000000e+00  0.0000000000000000e+00  7.0710678118654746e-01  1.8000000000000000e+02  7.0710678118654746e-01  0.0000000000000000e+00  0.0000000000000000e+00  0.0000000000000000e+00
2.110000000000000e+00  0.0000000000000000e+00  0.0000000000000000e+00  7.0710678118654746e-01  0.0000000000000000e+00  7.0710678118654746e-01  0.0000000000000000e+00  0.0000000000000000e+00  0.0000000000000000e+00
                         7.0710678118654746e-01  0.0000000000000000e+00  0.0000000000000000e+00  0.0000000000000000e+00  0.0000000000000000e+00  0.0000000000000000e+00  7.0710678118654746e-01  1.8000000000000000e+02
                         7.0710678118654746e-01  0.0000000000000000e+00  0.0000000000000000e+00  0.0000000000000000e+00  0.0000000000000000e+00  0.0000000000000000e+00  7.0710678118654746e-01  0.0000000000000000e+00
                         0.0000000000000000e+00  0.0000000000000000e+00  7.0710678118654746e-01  1.8000000000000000e+02  7.0710678118654746e-01  0.0000000000000000e+00  0.0000000000000000e+00  0.0000000000000000e+00
2.111000000000000e+00  0.0000000000000000e+00  0.0000000000000000e+00  7.0710678118654746e-01  0.0000000000000000e+00  7.0710678118654746e-01  0.0000000000000000e+00  0.0000000000000000e+00  0.0000000000000000e+00
                         7.0710678118654746e-01  0.0000000000000000e+00  0.0000000000000000e+00  0.0000000000000000e+00  0.0000000000000000e+00  0.0000000000000000e+00  7.0710678118654746e-01  1.8000000000000000e+02
                         7.0710678118654746e-01  0.0000000000000000e+00  0.0000000000000000e+00  0.0000000000000000e+00  0.0000000000000000e+00  0.0000000000000000e+00  7.0710678118654746e-01  0.0000000000000000e+00
                         0.0000000000000000e+00  0.0000000000000000e+00  7.0710678118654746e-01  1.8000000000000000e+02  7.0710678118654746e-01  0.0000000000000000e+00  0.0000000000000000e+00  0.0000000000000000e+00
2.112000000000000e+00  0.0000000000000000e+00  0.0000000000000000e+00  7.0710678118654746e-01  0.0000000000000000e+00  7.0710678118654746e-01  0.0000000000000000e+00  0.0000000000000000e+00  0.0000000000000000e+00
                         7.0710678118654746e-01  0.0000000000000000e+00  0.0000000000000000e+00  0.0000000000000000e+00  0.0000000000000000e+00  0.0000000000000000e+00  7.0710678118654746e-01  1.8000000000000000e+02
                         7.0710678118654746e-01  0.0000000000000000e+00  0.0000000000000000e+00  0.0000000000000000e+00  0.0000000000000000e+00  0.0000000000000000e+00  7.0710678118654746e-01  0.0000000000000000e+00
                         0.0000000000000000e+00  0.0000000000000000e+00  7.0710678118654746e-01  1.8000000000000000e+02  7.0710678118654746e-01  0.0000000000000000e+00  0.0000000000000000e+00  0.0000000000000000e+00
2.113000000000000e+00  0.0000000000000000e+00  0.0000000000000000e+00  7.0710678118654746e-01  0.0000000000000000e+00  7.0710678118654746e-01  0.0000000000000000e+00  0.0000000000000000e+00  0.0000000000000000e+00
                         7.0710678118654746e-01  0.0000000000000000e+00  0.0000000000000000e+00  0.0000000000000000e+00  0.0000000000000000e+00  0.0000000000000000e+00  7.0710678118654746e-01  1.8000000000000000e+02
                         7.0710678118654746e-01  0.0000000000000000e+00  0.0000000000000000e+00  0.0000000000000000e+00  0.0000000000000000e+00  0.0000000000000000e+00  7.0710678118654746e-01  0.0000000000000000e+00
                         0.0000000000000000e+00  0.0000000000000000e+00  7.0710678118654746e-01  1.8000000000000000e+02  7.0710678118654746e-01  0.0000000000000000e+00  0.0000000000000000e+00  0.0000000000000000e+00
2.114000000000000e+00  0.0000000000000000e+00  0.0000000000000000e+00  7.0710678118654746e-01  0.0000000000000000e+00  7.0710678118654746e-01  0.0000000000000000e+00  0.0000000000000000e+00  0.0000000000000000e+00
                         7.0710678118654746e-01  0.0000000000000000e+00  0.0000000000000000e+00  0.0000000000000000e+00  0.0000000000000000e+00  0.0000000000000000e+00  7.0710678118654746e-01  1.8000000000000000e+02
                         7.0710678118654746e-01  0.0000000000000000e+00  0.0000000000000000e+00  0.0000000000000000e+00  0.0000000000000000e+00  0.0000000000000000e+00  7.0710678118654746e-01  0.0000000000000000e+00
                         0.0000000000000000e+00  0.0000000000000000e+00  7.0710678118654746e-01  1.8000000000000000e+02  7.0710678118654746e-01  0.0000000000000000e+00  0.0000000000000000e+00  0.0000000000000000e+00
2.115000000000000e+00  0.0000000000000000e+00  0.0000000000000000e+00  7.0710678118654746e-01  0.0000000000000000e+00  7.0710678118654746e-01  0.0000000000000000e+00  0.0000000000000000e+00  0.0000000000000000e+00
                         7.0710678118654746e-01  0.0000000000000000e+00  0.0000000000000000e+00  0.0000000000000000e+00  0.0000000000000000e+00  0.0000000000000000e+00  7.0710678118654746e-01  1.8000000000000000e+02
                         7.0710678118654746e-01  0.0000000000000000e+00  0.0000000000000000e+00  0.0000000000000000e+00  0.0000000000000000e+00  0.0000000000000000e+00  7.0710678118654746e-01  0.0000000000000000e+00
                         0.0000000000000000e+00  0.0000000000000000e+00  7.0710678118654746e-01  1.8000000000000000e+02  7.0710678118654746e-01  0.0000000000000000e+00  0.0000000000000000e+00  0.0000000000000000e+00
2.116000000000000e+00  0.0000000000000000e+00  0.0000000000000000e+00  7.0710678118654746e-01  0.0000000000000000e+00  7.0710678118654746e-01  0.0000000000000000e+00  0.0000000000000000e+00  0.0000000000000000e+00
                         7.0710678118654746e-01  0.0000000000000000e+00  0.0000000000000000e+00  0.0000000000000000e+00  0.0000000000000000e+00  0.0000000000000000e+00  7.0710678118654746e-01  1.8000000000000000e+02
                         7.0710678118654746e-01  0.0000000000000000e+00  0.0000000000000000e+00  0.0000000000000000e+00  0.0000000000000000e+00  0.0000000000000000e+00  7.0710678118654746e-01  0.0000000000000000e+00
                         0.0000000000000000e+00  0.0000000000000000e+00  7.0710678118654746e-01  1.8000000000000000e+02  7.0710678118654746e-01  0.0000000000000000e+00  0.0000000000000000e+00  0.0000000000000000e+00
2.117000000000000e+00  0.0000000000000000e+00  0.0000000000000000e+00  7.0710678118654746e-01  0.0000000000000000e+00  7.0710678118654746e-01  0.0000000000000000e+00  0.0000000000000000e+00  0.0000000000000000e+00
                         7.0710678118654746e-01  0.0000000000000000e+00  0.0000000000000000e+00  0.0000000000000000e+00  0.0000000000000000e+00  0.0000000000000000e+00  7.0710678118654746e-01  1.8000000000000000e+02
                         7.0710678118654746e-01  0.0000000000000000e+00  0.0000000000000000e+00  0.0000000000000000e+00  0.0000000000000000e+00  0.0000000000000000e+00  7.0710678118654746e-01  0.0000000000000000e+00
                         0.0000000000000000e+00  0.0000000000000000e+00  7.0710678118654746e-01  1.8000000000000000e+02  7.0710678118654746e-01  0.0000000000000000e+00  0.0000000000000000e+00  0.0000000000000000e+00
2.118000000000000e+00  0.0000000000000000e+00  0.0000000000000000e+00  7.0710678118654746e-01  0.0000000000000000e+00  7.0710678118654746e-01  0.0000000000000000e+00  0.0000000000000000e+00  0.0000000000000000e+00
                         7.0710678118654746e-01  0.0000000000000000e+00  0.0000000000000000e+00  0.0000000000000000e+00  0.0000000000000000e+00  0.0000000000000000e+00  7.0710678118654746e-01  1.8000000000000000e+02
                         7.0710678118654746e-01  0.0000000000000000e+00  0.0000000000000000e+00  0.0000000000000000e+00  0.0000000000000000e+00  0.0000000000000000e+00  7.0710678118654746e-01  0.0000000000000000e+00
                         0.0000000000000000e+00  0.0000000000000000e+00  7.0710678118654746e-01  1.8000000000000000e+02  7.0710678118654746e-01  0.0000000000000000e+00  0.0000000000000000e+00  0.0000000000000000e+00
2.119000000000000e+00  0.0000000000000000e+00  0.0000000000000000e+00  7.0710678118654746e-01  0.0000000000000000e+00  7.0710678118654746e-01  0.0000000000000000e+00  0.0000000000000000e+00  0.0000000000000000e+00
                         7.0710678118654746e-01  0.0000000000000000e+00  0.0000000000000000e+00  0.0000000000000000e+00  0.0000000000000000e+00  0.0000000000000000e+00  7.0710678118654746e-01  1.8000000000000000e+02
                         7.0710678118654746e-01  0.0000000000000000e+00  0.0000000000000000e+00  0.0000000000000000e+00  0.0000000000000000e+00  0.0000000000000000e+00  7.0710678118654746e-01  0.0000000000000000e+00
                         0.0000000000000000e+00  0.0000000000000000e+00  7.0710678118654746e-01  1.8000000000000000e+02  7.0710678118654746e-01  0.0000000000000000e+00  0.0000000000000000e+00  0.0000000000000000e+00
2.120000000000000e+00  0.0000000000000000e+00  0.0000000000000000e+00  7.0710678118654746e-01  0.0000000000000000e+00  7.0710678118654746e-01  0.0000000000000000e+00  0.0000000000000000e+00  0.0000000000000000e+00
                         7.0710678118654746e-01  0.0000000000000000e+00  0.0000000000000000e+00  0.0000000000000000e+00  0.0000000000000000e+00  0.0000000000000000e+00  7.0710678118654746e-01  1.8000000000000000e+02
                         7.0710678118654746e-01  0.0000000000000000e+00  0.0000000000000000e+00  0.0000000000000000e+00  0.0000000000000000e+00  0.0000000000000000e+00  7.0710678118654746e-01  0.0000000000000000e+00
                         0.0000000000000000e+00  0.0000000000000000e+00  7.0710678118654746e-01  1.8000000000000000e+02  7.0710678118654746e-01  0.0000000000000000e+00  0.0000000000000000e+00  0.0000000000000000e+00
2.121000000000000e+00  0.0000000000000000e+00  0.0000000000000000e+00  7.0710678118654746e-01  0.0000000000000000e+00  7.0710678118654746e-01  0.0000000000000000e+00  0.0000000000000000e+00  0.0000000000000000e+00
                         7.0710678118654746e-01  0.0000000000000000e+00  0.0000000000000000e+00  0.0000000000000000e+00  0.0000000000000000e+00  0.0000000000000000e+00  7.0710678118654746e-01  1.8000000000000000e+02
                         7.0710678118654746e-01  0.0000000000000000e+00  0.0000000000000000e+00  0.0000000000000000e+00  0.0000000000000000e+00  0.0000000000000000e+00  7.0710678118654746e-01  0.0000000000000000e+00
                         0.0000000000000000e+00  0.0000000000000000e+00  7.0710678118654746e-01  1.8000000000000000e+02  7.0710678118654746e-01  0.0000000000000000e+00  0.0000000000000000e+00  0.0000000000000000e+00
2.122000000000000e+00  0.0000000000000000e+00  0.0000000000000000e+00  7.0710678118654746e-01  0.0000000000000000e+00  7.0710678118654746e-01  0.0000000000000000e+00  0.0000000000000000e+00  0.0000000000000000e+00
                         7.0710678118654746e-01  0.0000000000000000e+00  0.0000000000000000e+00  0.0000000000000000e+00  0.0000000000000000e+00  0.0000000000000000e+00  7.0710678118654746e-01  1.8000000000000000e+02
                         7.0710678118654746e-01  0.0000000000000000e+00  0.0000000000000000e+00  0.0000000000000000e+00  0.0000000000000000e+00  0.0000000000000000e+00  7.0710678118654746e-01  0.0000000000000000e+00
                         0.0000000000000000e+00  0.0000000000000000e+00  7.0710678118654746e-01  1.8000000000000000e+02  7.0710678118654746e-01  0.0000000000000000e+00  0.0000000000000000e+00  0.0000000000000000e+00
2.123000000000000e+00  0.0000000000000000e+00  0.0000000000000000e+00  7.0710678118654746e-01  0.0000000000000000e+00  7.0710678118654746e-01  0.0000000000000000e+00  0.0000000000000000e+00  0.0000000000000000e+00
                         7.0710678118654746e-01  0.0000000000000000e+00  0.0000000000000000e+00  0.0000000000000000e+00  0.0000000000000000e+00  0.0000000000000000e+00  7.0710678118654746e-01  1.8000000000000000e+02
                         7.0710678118654746e-01  0.0000000000000000e+00  0.0000000000000000e+00  0.0000000000000000e+00  0.0000000000000000e+00  0.0000000000000000e+00  7.0710678118654746e-01  0.0000000000000000e+00
                         0.0000000000000000e+00  0.0000000000000000e+00  7.0710678118654746e-01  1.8000000000000000e+02  7.0710678118654746e-01  0.0000000000000000e+00  0.0000000000000000e+00  0.0000000000000000e+00
2.124000000000000e+00  0.0000000000000000e+00  0.0000000000000000e+00  7.0710678118654746e-01  0.0000000000000000e+00  7.0710678118654746e-01  0.0000000000000000e+00  0.0000000000000000e+00  0.0000000000000000e+00
                         7.0710678118654746e-01  0.0000000000000000e+00  0.0000000000000000e+00  0.0000000000000000e+00  0.0000000000000000e+00  0.0000000000000000e+00  7.0710678118654746e-01  1.8000000000000000e+02
                         7.0710678118654746e-01  0.0000000000000000e+00  0.0000000000000000e+00  0.0000000000000000e+00  0.0000000000000000e+00  0.0000000000000000e+00  7.0710678118654746e-01  0.0000000000000000e+00
                         0.0000000000000000e+00  0.0000000000000000e+00  7.0710678118654746e-01  1.8000000000000000e+02  7.0710678118654746e-01  0.0000000000000000e+00  0.0000000000000000e+00  0.0000000000000000e+00
2.125000000000000e+00  0.0000000000000000e+00  0.0000000000000000e+00  7.0710678118654746e-01  0.0000000000000000e+00  7.0710678118654746e-01  0.0000000000000000e+00  0.0000000000000000e+00  0.0000000000000000e+00
                         7.0710678118654746e-01  0.0000000000000000e+00  0.0000000000000000e+00  0.0000000000000000e+00  0.0000000000000000e+00  0.0000000000000000e+00  7.0710678118654746e-01  1.8000000000000000e+02
                         7.0710678118654746e-01  0.0000000000000000e+00  0.0000000000000000e+00  0.0000000000000000e+00  0.0000000000000000e+00  0.0000000000000000e+00  7.0710678118654746e-01  0.0000000000000000e+00
                         0.0000000000000000e+00  0.0000000000000000e+00  7.0710678118654746e-01  1.8000000000000000e+02  7.0710678118654746e-01  0.0000000000000000e+00  0.0000000000000000e+00  0.0000000000000000e+00
2.126000000000000e+00  0.0000000000000000e+00  0.0000000000000000e+00  7.0710678118654746e-01  0.0000000000000000e+00  7.0710678118654746e-01  0.0000000000000000e+00  0.0000000000000000e+00  0.0000000000000000e+00
                         7.0710678118654746e-01  0.0000000000000000e+00  0.0000000000000000e+00  0.0000000000000000e+00  0.0000000000000000e+00  0.0000000000000000e+00  7.0710678118654746e-01  1.8000000000000000e+02
                         7.0710678118654746e-01  0.0000000000000000e+00  0.0000000000000000e+00  0.0000000000000000e+00  0.0000000000000000e+00  0.0000000000000000e+00  7.0710678118654746e-01  0.0000000000000000e+00
                         0.0000000000000000e+00  0.0000000000000000e+00  7.0710678118654746e-01  1.8000000000000000e+02  7.0710678118654746e-01  0.0000000000000000e+00  0.0000000000000000e+00  0.0000000000000000e+00
2.127000000000000e+00  0.0000000000000000e+00  0.0000000000000000e+00  7.0710678118654746e-01  0.0000000000000000e+00  7.0710678118654746e-01  0.0000000000000000e+00  0.0000000000000000e+00  0.0000000000000000e+00
                         7.0710678118654746e-01  0.0000000000000000e+00  0.0000000000000000e+00  0.0000000000000000e+00  0.0000000000000000e+00  0.0000000000000000e+00  7.0710678118654746e-01  1.8000000000000000e+02
                         7.0710678118654746e-01  0.0000000000000000e+00  0.0000000000000000e+00  0.0000000000000000e+00  0.0000000000000000e+00  0.0000000000000000e+00  7.0710678118654746e-01  0.0000000000000000e+00
                         0.0000000000000000e+00  0.0000000000000000e+00  7.0710678118654746e-01  1.8000000000000000e+02  7.0710678118654746e-01  0.0000000000000000e+00  0.0000000000000000e+00  0.0000000000000000e+00
2.128000000000000e+00  0.0000000000000000e+00  0.0000000000000000e+00  7.0710678118654746e-01  0.0000000000000000e+00  7.0710678118654746e-01  0.0000000000000000e+00  0.0000000000000000e+00  0.0000000000000000e+00
                         7.0710678118654746e-01  0.0000000000000000e+00  0.0000000000000000e+00  0.0000000000000000e+00  0.0000000000000000e+00  0.0000000000000000e+00  7.0710678118654746e-01  1.8000000000000000e+02
                         7.0710678118654746e-01  0.0000000000000000e+00  0.0000000000000000e+00  0.0000000000000000e+00  0.0000000000000000e+00  0.0000000000000000e+00  7.0710678118654746e-01  0.0000000000000000e+00
                         0.0000000000000000e+00  0.0000000000000000e+00  7.0710678118654746e-01  1.8000000000000000e+02  7.0710678118654746e-01  0.0000000000000000e+00  0.0000000000000000e+00  0.0000000000000000e+00
2.129000000000000e+00  0.0000000000000000e+00  0.0000000000000000e+00  7.0710678118654746e-01  0.0000000000000000e+00  7.0710678118654746e-01  0.0000000000000000e+00  0.0000000000000000e+00  0.0000000000000000e+00
                         7.0710678118654746e-01  0.0000000000000000e+00  0.0000000000000000e+00  0.0000000000000000e+00  0.0000000000000000e+00  0.0000000000000000e+00  7.0710678118654746e-01  1.8000000000000000e+02
                         7.0710678118654746e-01  0.0000000000000000e+00  0.0000000000000000e+00  0.0000000000000000e+00  0.0000000000000000e+00  0.0000000000000000e+00  7.0710678118654746e-01  0.0000000000000000e+00
                         0.0000000000000000e+00  0.0000000000000000e+00  7.0710678118654746e-01  1.8000000000000000e+02  7.0710678118654746e-01  0.0000000000000000e+00  0.0000000000000000e+00  0.0000000000000000e+00
2.130000000000000e+00  0.0000000000000000e+00  0.0000000000000000e+00  7.0710678118654746e-01  0.0000000000000000e+00  7.0710678118654746e-01  0.0000000000000000e+00  0.0000000000000000e+00  0.0000000000000000e+00
                         7.0710678118654746e-01  0.0000000000000000e+00  0.0000000000000000e+00  0.0000000000000000e+00  0.0000000000000000e+00  0.0000000000000000e+00  7.0710678118654746e-01  1.8000000000000000e+02
                         7.0710678118654746e-01  0.0000000000000000e+00  0.0000000000000000e+00  0.0000000000000000e+00  0.0000000000000000e+00  0.0000000000000000e+00  7.0710678118654746e-01  0.0000000000000000e+00
                         0.0000000000000000e+00  0.0000000000000000e+00  7.0710678118654746e-01  1.8000000000000000e+02  7.0710678118654746e-01  0.0000000000000000e+00  0.0000000000000000e+00  0.0000000000000000e+00
2.131000000000000e+00  0.0000000000000000e+00  0.0000000000000000e+00  7.0710678118654746e-01  0.0000000000000000e+00  7.0710678118654746e-01  0.0000000000000000e+00  0.0000000000000000e+00  0.0000000000000000e+00
                         7.0710678118654746e-01  0.0000000000000000e+00  0.0000000000000000e+00  0.0000000000000000e+00  0.0000000000000000e+00  0.0000000000000000e+00  7.0710678118654746e-01  1.8000000000000000e+02
                         7.0710678118654746e-01  0.0000000000000000e+00  0.0000000000000000e+00  0.0000000000000000e+00  0.0000000000000000e+00  0.0000000000000000e+00  7.0710678118654746e-01  0.0000000000000000e+00
                         0.0000000000000000e+00  0.0000000000000000e+00  7.0710678118654746e-01  1.8000000000000000e+02  7.0710678118654746e-01  0.0000000000000000e+00  0.0000000000000000e+00  0.0000000000000000e+00
2.132000000000000e+00  0.0000000000000000e+00  0.0000000000000000e+00  7.0710678118654746e-01  0.0000000000000000e+00  7.0710678118654746e-01  0.0000000000000000e+00  0.0000000000000000e+00  0.0000000000000000e+00
                         7.0710678118654746e-01  0.0000000000000000e+00  0.0000000000000000e+00  0.0000000000000000e+00  0.0000000000000000e+00  0.0000000000000000e+00  7.0710678118654746e-01  1.8000000000000000e+02
                         7.0710678118654746e-01  0.0000000000000000e+00  0.0000000000000000e+00  0.0000000000000000e+00  0.0000000000000000e+00  0.0000000000000000e+00  7.0710678118654746e-01  0.0000000000000000e+00
                         0.0000000000000000e+00  0.0000000000000000e+00  7.0710678118654746e-01  1.8000000000000000e+02  7.0710678118654746e-01  0.0000000000000000e+00  0.0000000000000000e+00  0.0000000000000000e+00
2.133000000000000e+00  0.0000000000000000e+00  0.0000000000000000e+00  7.0710678118654746e-01  0.0000000000000000e+00  7.0710678118654746e-01  0.0000000000000000e+00  0.0000000000000000e+00  0.0000000000000000e+00
                         7.0710678118654746e-01  0.0000000000000000e+00  0.0000000000000000e+00  0.0000000000000000e+00  0.0000000000000000e+00  0.0000000000000000e+00  7.0710678118654746e-01  1.8000000000000000e+02
                         7.0710678118654746e-01  0.0000000000000000e+00  0.0000000000000000e+00  0.0000000000000000e+00  0.0000000000000000e+00  0.0000000000000000e+00  7.0710678118654746e-01  0.0000000000000000e+00
                         0.0000000000000000e+00  0.0000000000000000e+00  7.0710678118654746e-01  1.8000000000000000e+02  7.0710678118654746e-01  0.0000000000000000e+00  0.0000000000000000e+00  0.0000000000000000e+00
2.134000000000000e+00  0.0000000000000000e+00  0.0000000000000000e+00  7.0710678118654746e-01  0.0000000000000000e+00  7.0710678118654746e-01  0.0000000000000000e+00  0.0000000000000000e+00  0.0000000000000000e+00
                         7.0710678118654746e-01  0.0000000000000000e+00  0.0000000000000000e+00  0.0000000000000000e+00  0.0000000000000000e+00  0.0000000000000000e+00  7.0710678118654746e-01  1.8000000000000000e+02
                         7.0710678118654746e-01  0.0000000000000000e+00  0.0000000000000000e+00  0.0000000000000000e+00  0.0000000000000000e+00  0.0000000000000000e+00  7.0710678118654746e-01  0.0000000000000000e+00
                         0.0000000000000000e+00  0.0000000000000000e+00  7.0710678118654746e-01  1.8000000000000000e+02  7.0710678118654746e-01  0.0000000000000000e+00  0.0000000000000000e+00  0.0000000000000000e+00
2.135000000000000e+00  0.0000000000000000e+00  0.0000000000000000e+00  7.0710678118654746e-01  0.0000000000000000e+00  7.0710678118654746e-01  0.0000000000000000e+00  0.0000000000000000e+00  0.0000000000000000e+00
                         7.0710678118654746e-01  0.0000000000000000e+00  0.0000000000000000e+00  0.0000000000000000e+00  0.0000000000000000e+00  0.0000000000000000e+00  7.0710678118654746e-01  1.8000000000000000e+02
                         7.0710678118654746e-01  0.0000000000000000e+00  0.0000000000000000e+00  0.0000000000000000e+00  0.0000000000000000e+00  0.0000000000000000e+00  7.0710678118654746e-01  0.0000000000000000e+00
                         0.0000000000000000e+00  0.0000000000000000e+00  7.0710678118654746e-01  1.8000000000000000e+02  7.0710678118654746e-01  0.0000000000000000e+00  0.0000000000000000e+00  0.0000000000000000e+00
2.136000000000000e+00  0.0000000000000000e+00  0.0000000000000000e+00  7.0710678118654746e-01  0.0000000000000000e+00  7.0710678118654746e-01  0.0000000000000000e+00  0.0000000000000000e+00  0.0000000000000000e+00
                         7.0710678118654746e-01  0.0000000000000000e+00  0.0000000000000000e+00  0.0000000000000000e+00  0.0000000000000000e+00  0.0000000000000000e+00  7.0710678118654746e-01  1.8000000000000000e+02
                         7.0710678118654746e-01  0.0000000000000000e+00  0.0000000000000000e+00  0.0000000000000000e+00  0.0000000000000000e+00  0.0000000000000000e+00  7.0710678118654746e-01  0.0000000000000000e+00
                         0.0000000000000000e+00  0.0000000000000000e+00  7.0710678118654746e-01  1.8000000000000000e+02  7.0710678118654746e-01  0.0000000000000000e+00  0.0000000000000000e+00  0.0000000000000000e+00
2.137000000000000e+00  0.0000000000000000e+00  0.0000000000000000e+00  7.0710678118654746e-01  0.0000000000000000e+00  7.0710678118654746e-01  0.0000000000000000e+00  0.0000000000000000e+00  0.0000000000000000e+00
                         7.0710678118654746e-01  0.0000000000000000e+00  0.0000000000000000e+00  0.0000000000000000e+00  0.0000000000000000e+00  0.0000000000000000e+00  7.0710678118654746e-01  1.8000000000000000e+02
                         7.0710678118654746e-01  0.0000000000000000e+00  0.0000000000000000e+00  0.0000000000000000e+00  0.0000000000000000e+00  0.0000000000000000e+00  7.0710678118654746e-01  0.0000000000000000e+00
                         0.0000000000000000e+00  0.0000000000000000e+00  7.0710678118654746e-01  1.8000000000000000e+02  7.0710678118654746e-01  0.0000000000000000e+00  0.0000000000000000e+00  0.0000000000000000e+00
2.138000000000000e+00  0.0000000000000000e+00  0.0000000000000000e+00  7.0710678118654746e-01  0.0000000000000000e+00  7.0710678118654746e-01  0.0000000000000000e+00  0.0000000000000000e+00  0.0000000000000000e+00
                         7.0710678118654746e-01  0.0000000000000000e+00  0.0000000000000000e+00  0.0000000000000000e+00  0.0000000000000000e+00  0.0000000000000000e+00  7.0710678118654746e-01  1.8000000000000000e+02
                         7.0710678118654746e-01  0.0000000000000000e+00  0.0000000000000000e+00  0.0000000000000000e+00  0.0000000000000000e+00  0.0000000000000000e+00  7.0710678118654746e-01  0.0000000000000000e+00
                         0.0000000000000000e+00  0.0000000000000000e+00  7.0710678118654746e-01  1.8000000000000000e+02  7.0710678118654746e-01  0.0000000000000000e+00  0.0000000000000000e+00  0.0000000000000000e+00
2.139000000000000e+00  0.0000000000000000e+00  0.0000000000000000e+00  7.0710678118654746e-01  0.0000000000000000e+00  7.0710678118654746e-01  0.0000000000000000e+00  0.0000000000000000e+00  0.0000000000000000e+00
                         7.0710678118654746e-01  0.0000000000000000e+00  0.0000000000000000e+00  0.0000000000000000e+00  0.0000000000000000e+00  0.0000000000000000e+00  7.0710678118654746e-01  1.8000000000000000e+02
                         7.0710678118654746e-01  0.0000000000000000e+00  0.0000000000000000e+00  0.0000000000000000e+00  0.0000000000000000e+00  0.0000000000000000e+00  7.0710678118654746e-01  0.0000000000000000e+00
                         0.0000000000000000e+00  0.0000000000000000e+00  7.0710678118654746e-01  1.8000000000000000e+02  7.0710678118654746e-01  0.0000000000000000e+00  0.0000000000000000e+00  0.0000000000000000e+00
2.140000000000000e+00  0.0000000000000000e+00  0.0000000000000000e+00  7.0710678118654746e-01  0.0000000000000000e+00  7.0710678118654746e-01  0.0000000000000000e+00  0.0000000000000000e+00  0.0000000000000000e+00
                         7.0710678118654746e-01  0.0000000000000000e+00  0.0000000000000000e+00  0.0000000000000000e+00  0.0000000000000000e+00  0.0000000000000000e+00  7.0710678118654746e-01  1.8000000000000000e+02
                         7.0710678118654746e-01  0.0000000000000000e+00  0.0000000000000000e+00  0.0000000000000000e+00  0.0000000000000000e+00  0.0000000000000000e+00  7.0710678118654746e-01  0.0000000000000000e+00
                         0.0000000000000000e+00  0.0000000000000000e+00  7.0710678118654746e-01  1.8000000000000000e+02  7.0710678118654746e-01  0.0000000000000000e+00  0.0000000000000000e+00  0.0000000000000000e+00
2.141000000000000e+00  0.0000000000000000e+00  0.0000000000000000e+00  7.0710678118654746e-01  0.0000000000000000e+00  7.0710678118654746e-01  0.0000000000000000e+00  0.0000000000000000e+00  0.0000000000000000e+00
                         7.0710678118654746e-01  0.0000000000000000e+00  0.0000000000000000e+00  0.0000000000000000e+00  0.0000000000000000e+00  0.0000000000000000e+00  7.0710678118654746e-01  1.8000000000000000e+02
                         7.0710678118654746e-01  0.0000000000000000e+00  0.0000000000000000e+00  0.0000000000000000e+00  0.0000000000000000e+00  0.0000000000000000e+00  7.0710678118654746e-01  0.0000000000000000e+00
                         0.0000000000000000e+00  0.0000000000000000e+00  7.0710678118654746e-01  1.8000000000000000e+02  7.0710678118654746e-01  0.0000000000000000e+00  0.0000000000000000e+00  0.0000000000000000e+00
2.142000000000000e+00  0.0000000000000000e+00  0.0000000000000000e+00  7.0710678118654746e-01  0.0000000000000000e+00  7.0710678118654746e-01  0.0000000000000000e+00  0.0000000000000000e+00  0.0000000000000000e+00
                         7.0710678118654746e-01  0.0000000000000000e+00  0.0000000000000000e+00  0.0000000000000000e+00  0.0000000000000000e+00  0.0000000000000000e+00  7.0710678118654746e-01  1.8000000000000000e+02
                         7.0710678118654746e-01  0.0000000000000000e+00  0.0000000000000000e+00  0.0000000000000000e+00  0.0000000000000000e+00  0.0000000000000000e+00  7.0710678118654746e-01  0.0000000000000000e+00
                         0.0000000000000000e+00  0.0000000000000000e+00  7.0710678118654746e-01  1.8000000000000000e+02  7.0710678118654746e-01  0.0000000000000000e+00  0.0000000000000000e+00  0.0000000000000000e+00
2.143000000000000e+00  0.0000000000000000e+00  0.0000000000000000e+00  7.0710678118654746e-01  0.0000000000000000e+00  7.0710678118654746e-01  0.0000000000000000e+00  0.0000000000000000e+00  0.0000000000000000e+00
                         7.0710678118654746e-01  0.0000000000000000e+00  0.0000000000000000e+00  0.0000000000000000e+00  0.0000000000000000e+00  0.0000000000000000e+00  7.0710678118654746e-01  1.8000000000000000e+02
                         7.0710678118654746e-01  0.0000000000000000e+00  0.0000000000000000e+00  0.0000000000000000e+00  0.0000000000000000e+00  0.0000000000000000e+00  7.0710678118654746e-01  0.0000000000000000e+00
                         0.0000000000000000e+00  0.0000000000000000e+00  7.0710678118654746e-01  1.8000000000000000e+02  7.0710678118654746e-01  0.0000000000000000e+00  0.0000000000000000e+00  0.0000000000000000e+00
2.144000000000000e+00  0.0000000000000000e+00  0.0000000000000000e+00  7.0710678118654746e-01  0.0000000000000000e+00  7.0710678118654746e-01  0.0000000000000000e+00  0.0000000000000000e+00  0.0000000000000000e+00
                         7.0710678118654746e-01  0.0000000000000000e+00  0.0000000000000000e+00  0.0000000000000000e+00  0.0000000000000000e+00  0.0000000000000000e+00  7.0710678118654746e-01  1.8000000000000000e+02
                         7.0710678118654746e-01  0.0000000000000000e+00  0.0000000000000000e+00  0.0000000000000000e+00  0.0000000000000000e+00  0.0000000000000000e+00  7.0710678118654746e-01  0.0000000000000000e+00
                         0.0000000000000000e+00  0.0000000000000000e+00  7.0710678118654746e-01  1.8000000000000000e+02  7.0710678118654746e-01  0.0000000000000000e+00  0.0000000000000000e+00  0.0000000000000000e+00
2.145000000000000e+00  0.0000000000000000e+00  0.0000000000000000e+00  7.0710678118654746e-01  0.0000000000000000e+00  7.0710678118654746e-01  0.0000000000000000e+00  0.0000000000000000e+00  0.0000000000000000e+00
                         7.0710678118654746e-01  0.0000000000000000e+00  0.0000000000000000e+00  0.0000000000000000e+00  0.0000000000000000e+00  0.0000000000000000e+00  7.0710678118654746e-01  1.8000000000000000e+02
                         7.0710678118654746e-01  0.0000000000000000e+00  0.0000000000000000e+00  0.0000000000000000e+00  0.0000000000000000e+00  0.0000000000000000e+00  7.0710678118654746e-01  0.0000000000000000e+00
                         0.0000000000000000e+00  0.0000000000000000e+00  7.0710678118654746e-01  1.8000000000000000e+02  7.0710678118654746e-01  0.0000000000000000e+00  0.0000000000000000e+00  0.0000000000000000e+00
2.146000000000000e+00  0.0000000000000000e+00  0.0000000000000000e+00  7.0710678118654746e-01  0.0000000000000000e+00  7.0710678118654746e-01  0.0000000000000000e+00  0.0000000000000000e+00  0.0000000000000000e+00
                         7.0710678118654746e-01  0.0000000000000000e+00  0.0000000000000000e+00  0.0000000000000000e+00  0.0000000000000000e+00  0.0000000000000000e+00  7.0710678118654746e-01  1.8000000000000000e+02
                         7.0710678118654746e-01  0.0000000000000000e+00  0.0000000000000000e+00  0.0000000000000000e+00  0.0000000000000000e+00  0.0000000000000000e+00  7.0710678118654746e-01  0.0000000000000000e+00
                         0.0000000000000000e+00  0.0000000000000000e+00  7.0710678118654746e-01  1.8000000000000000e+02  7.0710678118654746e-01  0.0000000000000000e+00  0.0000000000000000e+00  0.0000000000000000e+00
2.147000000000000e+00  0.0000000000000000e+00  0.0000000000000000e+00  7.0710678118654746e-01  0.0000000000000000e+00  7.0710678118654746e-01  0.0000000000000000e+00  0.0000000000000000e+00  0.0000000000000000e+00
                         7.0710678118654746e-01  0.0000000000000000e+00  0.0000000000000000e+00  0.0000000000000000e+00  0.0000000000000000e+00  0.0000000000000000e+00  7.0710678118654746e-01  1.8000000000000000e+02
                         7.0710678118654746e-01  0.0000000000000000e+00  0.0000000000000000e+00  0.0000000000000000e+00  0.0000000000000000e+00  0.0000000000000000e+00  7.0710678118654746e-01  0.0000000000000000e+00
                         0.0000000000000000e+00  0.0000000000000000e+00  7.0710678118654746e-01  1.8000000000000000e+02  7.0710678118654746e-01  0.0000000000000000e+00  0.0000000000000000e+00  0.0000000000000000e+00
2.148000000000000e+00  0.0000000000000000e+00  0.0000000000000000e+00  7.0710678118654746e-01  0.0000000000000000e+00  7.0710678118654746e-01  0.0000000000000000e+00  0.0000000000000000e+00  0.0000000000000000e+00
                         7.0710678118654746e-01  0.0000000000000000e+00  0.0000000000000000e+00  0.0000000000000000e+00  0.0000000000000000e+00  0.0000000000000000e+00  7.0710678118654746e-01  1.8000000000000000e+02
                         7.0710678118654746e-01  0.0000000000000000e+00  0.0000000000000000e+00  0.0000000000000000e+00  0.0000000000000000e+00  0.0000000000000000e+00  7.0710678118654746e-01  0.0000000000000000e+00
                         0.0000000000000000e+00  0.0000000000000000e+00  7.0710678118654746e-01  1.8000000000000000e+02  7.0710678118654746e-01  0.0000000000000000e+00  0.0000000000000000e+00  0.0000000000000000e+00
2.149000000000000e+00  0.0000000000000000e+00  0.0000000000000000e+00  7.0710678118654746e-01  0.0000000000000000e+00  7.0710678118654746e-01  0.0000000000000000e+00  0.0000000000000000e+00  0.0000000000000000e+00
                         7.0710678118654746e-01  0.0000000000000000e+00  0.0000000000000000e+00  0.0000000000000000e+00  0.0000000000000000e+00  0.0000000000000000e+00  7.0710678118654746e-01  1.8000000000000000e+02
                         7.0710678118654746e-01  0.0000000000000000e+00  0.0000000000000000e+00  0.0000000000000000e+00  0.0000000000000000e+00  0.0000000000000000e+00  7.0710678118654746e-01  0.0000000000000000e+00
                         0.0000000000000000e+00  0.0000000000000000e+00  7.0710678118654746e-01  1.8000000000000000e+02  7.0710678118654746e-01  0.0000000000000000e+00  0.0000000000000000e+00  0.0000000000000000e+00
2.150000000000000e+00  0.0000000000000000e+00  0.0000000000000000e+00  7.0710678118654746e-01  0.0000000000000000e+00  7.0710678118654746e-01  0.0000000000000000e+00  0.0000000000000000e+00  0.0000000000000000e+00
                         7.0710678118654746e-01  0.0000000000000000e+00  0.0000000000000000e+00  0.0000000000000000e+00  0.0000000000000000e+00  0.0000000000000000e+00  7.0710678118654746e-01  1.8000000000000000e+02
                         7.0710678118654746e-01  0.0000000000000000e+00  0.0000000000000000e+00  0.0000000000000000e+00  0.0000000000000000e+00  0.0000000000000000e+00  7.0710678118654746e-01  0.0000000000000000e+00
                         0.0000000000000000e+00  0.0000000000000000e+00  7.0710678118654746e-01  1.8000000000000000e+02  7.0710678118654746e-01  0.0000000000000000e+00  0.0000000000000000e+00  0.0000000000000000e+00
2.151000000000000e+00  0.0000000000000000e+00  0.0000000000000000e+00  7.0710678118654746e-01  0.0000000000000000e+00  7.0710678118654746e-01  0.0000000000000000e+00  0.0000000000000000e+00  0.0000000000000000e+00
                         7.0710678118654746e-01  0.0000000000000000e+00  0.0000000000000000e+00  0.0000000000000000e+00  0.0000000000000000e+00  0.0000000000000000e+00  7.0710678118654746e-01  1.8000000000000000e+02
                         7.0710678118654746e-01  0.0000000000000000e+00  0.0000000000000000e+00  0.0000000000000000e+00  0.0000000000000000e+00  0.0000000000000000e+00  7.0710678118654746e-01  0.0000000000000000e+00
                         0.0000000000000000e+00  0.0000000000000000e+00  7.0710678118654746e-01  1.8000000000000000e+02  7.0710678118654746e-01  0.0000000000000000e+00  0.0000000000000000e+00  0.0000000000000000e+00
2.152000000000000e+00  0.0000000000000000e+00  0.0000000000000000e+00  7.0710678118654746e-01  0.0000000000000000e+00  7.0710678118654746e-01  0.0000000000000000e+00  0.0000000000000000e+00  0.0000000000000000e+00
                         7.0710678118654746e-01  0.0000000000000000e+00  0.0000000000000000e+00  0.0000000000000000e+00  0.0000000000000000e+00  0.0000000000000000e+00  7.0710678118654746e-01  1.8000000000000000e+02
                         7.0710678118654746e-01  0.0000000000000000e+00  0.0000000000000000e+00  0.0000000000000000e+00  0.0000000000000000e+00  0.0000000000000000e+00  7.0710678118654746e-01  0.0000000000000000e+00
                         0.0000000000000000e+00  0.0000000000000000e+00  7.0710678118654746e-01  1.8000000000000000e+02  7.0710678118654746e-01  0.0000000000000000e+00  0.0000000000000000e+00  0.0000000000000000e+00
2.153000000000000e+00  0.0000000000000000e+00  0.0000000000000000e+00  7.0710678118654746e-01  0.0000000000000000e+00  7.0710678118654746e-01  0.0000000000000000e+00  0.0000000000000000e+00  0.0000000000000000e+00
                         7.0710678118654746e-01  0.0000000000000000e+00  0.0000000000000000e+00  0.0000000000000000e+00  0.0000000000000000e+00  0.0000000000000000e+00  7.0710678118654746e-01  1.8000000000000000e+02
                         7.0710678118654746e-01  0.0000000000000000e+00  0.0000000000000000e+00  0.0000000000000000e+00  0.0000000000000000e+00  0.0000000000000000e+00  7.0710678118654746e-01  0.0000000000000000e+00
                         0.0000000000000000e+00  0.0000000000000000e+00  7.0710678118654746e-01  1.8000000000000000e+02  7.0710678118654746e-01  0.0000000000000000e+00  0.0000000000000000e+00  0.0000000000000000e+00
2.154000000000000e+00  0.0000000000000000e+00  0.0000000000000000e+00  7.0710678118654746e-01  0.0000000000000000e+00  7.0710678118654746e-01  0.0000000000000000e+00  0.0000000000000000e+00  0.0000000000000000e+00
                         7.0710678118654746e-01  0.0000000000000000e+00  0.0000000000000000e+00  0.0000000000000000e+00  0.0000000000000000e+00  0.0000000000000000e+00  7.0710678118654746e-01  1.8000000000000000e+02
                         7.0710678118654746e-01  0.0000000000000000e+00  0.0000000000000000e+00  0.0000000000000000e+00  0.0000000000000000e+00  0.0000000000000000e+00  7.0710678118654746e-01  0.0000000000000000e+00
                         0.0000000000000000e+00  0.0000000000000000e+00  7.0710678118654746e-01  1.8000000000000000e+02  7.0710678118654746e-01  0.0000000000000000e+00  0.0000000000000000e+00  0.0000000000000000e+00
2.155000000000000e+00  0.0000000000000000e+00  0.0000000000000000e+00  7.0710678118654746e-01  0.0000000000000000e+00  7.0710678118654746e-01  0.0000000000000000e+00  0.0000000000000000e+00  0.0000000000000000e+00
                         7.0710678118654746e-01  0.0000000000000000e+00  0.0000000000000000e+00  0.0000000000000000e+00  0.0000000000000000e+00  0.0000000000000000e+00  7.0710678118654746e-01  1.8000000000000000e+02
                         7.0710678118654746e-01  0.0000000000000000e+00  0.0000000000000000e+00  0.0000000000000000e+00  0.0000000000000000e+00  0.0000000000000000e+00  7.0710678118654746e-01  0.0000000000000000e+00
                         0.0000000000000000e+00  0.0000000000000000e+00  7.0710678118654746e-01  1.8000000000000000e+02  7.0710678118654746e-01  0.0000000000000000e+00  0.0000000000000000e+00  0.0000000000000000e+00
2.156000000000000e+00  0.0000000000000000e+00  0.0000000000000000e+00  7.0710678118654746e-01  0.0000000000000000e+00  7.0710678118654746e-01  0.0000000000000000e+00  0.0000000000000000e+00  0.0000000000000000e+00
                         7.0710678118654746e-01  0.0000000000000000e+00  0.0000000000000000e+00  0.0000000000000000e+00  0.0000000000000000e+00  0.0000000000000000e+00  7.0710678118654746e-01  1.8000000000000000e+02
                         7.0710678118654746e-01  0.0000000000000000e+00  0.0000000000000000e+00  0.0000000000000000e+00  0.0000000000000000e+00  0.0000000000000000e+00  7.0710678118654746e-01  0.0000000000000000e+00
                         0.0000000000000000e+00  0.0000000000000000e+00  7.0710678118654746e-01  1.8000000000000000e+02  7.0710678118654746e-01  0.0000000000000000e+00  0.0000000000000000e+00  0.0000000000000000e+00
2.157000000000000e+00  0.0000000000000000e+00  0.0000000000000000e+00  7.0710678118654746e-01  0.0000000000000000e+00  7.0710678118654746e-01  0.0000000000000000e+00  0.0000000000000000e+00  0.0000000000000000e+00
                         7.0710678118654746e-01  0.0000000000000000e+00  0.0000000000000000e+00  0.0000000000000000e+00  0.0000000000000000e+00  0.0000000000000000e+00  7.0710678118654746e-01  1.8000000000000000e+02
                         7.0710678118654746e-01  0.0000000000000000e+00  0.0000000000000000e+00  0.0000000000000000e+00  0.0000000000000000e+00  0.0000000000000000e+00  7.0710678118654746e-01  0.0000000000000000e+00
                         0.0000000000000000e+00  0.0000000000000000e+00  7.0710678118654746e-01  1.8000000000000000e+02  7.0710678118654746e-01  0.0000000000000000e+00  0.0000000000000000e+00  0.0000000000000000e+00
2.158000000000000e+00  0.0000000000000000e+00  0.0000000000000000e+00  7.0710678118654746e-01  0.0000000000000000e+00  7.0710678118654746e-01  0.0000000000000000e+00  0.0000000000000000e+00  0.0000000000000000e+00
                         7.0710678118654746e-01  0.0000000000000000e+00  0.0000000000000000e+00  0.0000000000000000e+00  0.0000000000000000e+00  0.0000000000000000e+00  7.0710678118654746e-01  1.8000000000000000e+02
                         7.0710678118654746e-01  0.0000000000000000e+00  0.0000000000000000e+00  0.0000000000000000e+00  0.0000000000000000e+00  0.0000000000000000e+00  7.0710678118654746e-01  0.0000000000000000e+00
                         0.0000000000000000e+00  0.0000000000000000e+00  7.0710678118654746e-01  1.8000000000000000e+02  7.0710678118654746e-01  0.0000000000000000e+00  0.0000000000000000e+00  0.0000000000000000e+00
2.159000000000000e+00  0.0000000000000000e+00  0.0000000000000000e+00  7.0710678118654746e-01  0.0000000000000000e+00  7.0710678118654746e-01  0.0000000000000000e+00  0.0000000000000000e+00  0.0000000000000000e+00
                         7.0710678118654746e-01  0.0000000000000000e+00  0.0000000000000000e+00  0.0000000000000000e+00  0.0000000000000000e+00  0.0000000000000000e+00  7.0710678118654746e-01  1.8000000000000000e+02
                         7.0710678118654746e-01  0.0000000000000000e+00  0.0000000000000000e+00  0.0000000000000000e+00  0.0000000000000000e+00  0.0000000000000000e+00  7.0710678118654746e-01  0.0000000000000000e+00
                         0.0000000000000000e+00  0.0000000000000000e+00  7.0710678118654746e-01  1.8000000000000000e+02  7.0710678118654746e-01  0.0000000000000000e+00  0.0000000000000000e+00  0.0000000000000000e+00
2.160000000000000e+00  0.0000000000000000e+00  0.0000000000000000e+00  7.0710678118654746e-01  0.0000000000000000e+00  7.0710678118654746e-01  0.0000000000000000e+00  0.0000000000000000e+00  0.0000000000000000e+00
                         7.0710678118654746e-01  0.0000000000000000e+00  0.0000000000000000e+00  0.0000000000000000e+00  0.0000000000000000e+00  0.0000000000000000e+00  7.0710678118654746e-01  1.8000000000000000e+02
                         7.0710678118654746e-01  0.0000000000000000e+00  0.0000000000000000e+00  0.0000000000000000e+00  0.0000000000000000e+00  0.0000000000000000e+00  7.0710678118654746e-01  0.0000000000000000e+00
                         0.0000000000000000e+00  0.0000000000000000e+00  7.0710678118654746e-01  1.8000000000000000e+02  7.0710678118654746e-01  0.0000000000000000e+00  0.0000000000000000e+00  0.0000000000000000e+00
2.161000000000000e+00  0.0000000000000000e+00  0.0000000000000000e+00  7.0710678118654746e-01  0.0000000000000000e+00  7.0710678118654746e-01  0.0000000000000000e+00  0.0000000000000000e+00  0.0000000000000000e+00
                         7.0710678118654746e-01  0.0000000000000000e+00  0.0000000000000000e+00  0.0000000000000000e+00  0.0000000000000000e+00  0.0000000000000000e+00  7.0710678118654746e-01  1.8000000000000000e+02
                         7.0710678118654746e-01  0.0000000000000000e+00  0.0000000000000000e+00  0.0000000000000000e+00  0.0000000000000000e+00  0.0000000000000000e+00  7.0710678118654746e-01  0.0000000000000000e+00
                         0.0000000000000000e+00  0.0000000000000000e+00  7.0710678118654746e-01  1.8000000000000000e+02  7.0710678118654746e-01  0.0000000000000000e+00  0.0000000000000000e+00  0.0000000000000000e+00
2.162000000000000e+00  0.0000000000000000e+00  0.0000000000000000e+00  7.0710678118654746e-01  0.0000000000000000e+00  7.0710678118654746e-01  0.0000000000000000e+00  0.0000000000000000e+00  0.0000000000000000e+00
                         7.0710678118654746e-01  0.0000000000000000e+00  0.0000000000000000e+00  0.0000000000000000e+00  0.0000000000000000e+00  0.0000000000000000e+00  7.0710678118654746e-01  1.8000000000000000e+02
                         7.0710678118654746e-01  0.0000000000000000e+00  0.0000000000000000e+00  0.0000000000000000e+00  0.0000000000000000e+00  0.0000000000000000e+00  7.0710678118654746e-01  0.0000000000000000e+00
                         0.0000000000000000e+00  0.0000000000000000e+00  7.0710678118654746e-01  1.8000000000000000e+02  7.0710678118654746e-01  0.0000000000000000e+00  0.0000000000000000e+00  0.0000000000000000e+00
2.163000000000000e+00  0.0000000000000000e+00  0.0000000000000000e+00  7.0710678118654746e-01  0.0000000000000000e+00  7.0710678118654746e-01  0.0000000000000000e+00  0.0000000000000000e+00  0.0000000000000000e+00
                         7.0710678118654746e-01  0.0000000000000000e+00  0.0000000000000000e+00  0.0000000000000000e+00  0.0000000000000000e+00  0.0000000000000000e+00  7.0710678118654746e-01  1.8000000000000000e+02
                         7.0710678118654746e-01  0.0000000000000000e+00  0.0000000000000000e+00  0.0000000000000000e+00  0.0000000000000000e+00  0.0000000000000000e+00  7.0710678118654746e-01  0.0000000000000000e+00
                         0.0000000000000000e+00  0.0000000000000000e+00  7.0710678118654746e-01  1.8000000000000000e+02  7.0710678118654746e-01  0.0000000000000000e+00  0.0000000000000000e+00  0.0000000000000000e+00
2.164000000000000e+00  0.0000000000000000e+00  0.0000000000000000e+00  7.0710678118654746e-01  0.0000000000000000e+00  7.0710678118654746e-01  0.0000000000000000e+00  0.0000000000000000e+00  0.0000000000000000e+00
                         7.0710678118654746e-01  0.0000000000000000e+00  0.0000000000000000e+00  0.0000000000000000e+00  0.0000000000000000e+00  0.0000000000000000e+00  7.0710678118654746e-01  1.8000000000000000e+02
                         7.0710678118654746e-01  0.0000000000000000e+00  0.0000000000000000e+00  0.0000000000000000e+00  0.0000000000000000e+00  0.0000000000000000e+00  7.0710678118654746e-01  0.0000000000000000e+00
                         0.0000000000000000e+00  0.0000000000000000e+00  7.0710678118654746e-01  1.8000000000000000e+02  7.0710678118654746e-01  0.0000000000000000e+00  0.0000000000000000e+00  0.0000000000000000e+00
2.165000000000000e+00  0.0000000000000000e+00  0.0000000000000000e+00  7.0710678118654746e-01  0.0000000000000000e+00  7.0710678118654746e-01  0.0000000000000000e+00  0.0000000000000000e+00  0.0000000000000000e+00
                         7.0710678118654746e-01  0.0000000000000000e+00  0.0000000000000000e+00  0.0000000000000000e+00  0.0000000000000000e+00  0.0000000000000000e+00  7.0710678118654746e-01  1.8000000000000000e+02
                         7.0710678118654746e-01  0.0000000000000000e+00  0.0000000000000000e+00  0.0000000000000000e+00  0.0000000000000000e+00  0.0000000000000000e+00  7.0710678118654746e-01  0.0000000000000000e+00
                         0.0000000000000000e+00  0.0000000000000000e+00  7.0710678118654746e-01  1.8000000000000000e+02  7.0710678118654746e-01  0.0000000000000000e+00  0.0000000000000000e+00  0.0000000000000000e+00
2.166000000000000e+00  0.0000000000000000e+00  0.0000000000000000e+00  7.0710678118654746e-01  0.0000000000000000e+00  7.0710678118654746e-01  0.0000000000000000e+00  0.0000000000000000e+00  0.0000000000000000e+00
                         7.0710678118654746e-01  0.0000000000000000e+00  0.0000000000000000e+00  0.0000000000000000e+00  0.0000000000000000e+00  0.0000000000000000e+00  7.0710678118654746e-01  1.8000000000000000e+02
                         7.0710678118654746e-01  0.0000000000000000e+00  0.0000000000000000e+00  0.0000000000000000e+00  0.0000000000000000e+00  0.0000000000000000e+00  7.0710678118654746e-01  0.0000000000000000e+00
                         0.0000000000000000e+00  0.0000000000000000e+00  7.0710678118654746e-01  1.8000000000000000e+02  7.0710678118654746e-01  0.0000000000000000e+00  0.0000000000000000e+00  0.0000000000000000e+00
2.167000000000000e+00  0.0000000000000000e+00  0.0000000000000000e+00  7.0710678118654746e-01  0.0000000000000000e+00  7.0710678118654746e-01  0.0000000000000000e+00  0.0000000000000000e+00  0.0000000000000000e+00
                         7.0710678118654746e-01  0.0000000000000000e+00  0.0000000000000000e+00  0.0000000000000000e+00  0.0000000000000000e+00  0.0000000000000000e+00  7.0710678118654746e-01  1.8000000000000000e+02
                         7.0710678118654746e-01  0.0000000000000000e+00  0.0000000000000000e+00  0.0000000000000000e+00  0.0000000000000000e+00  0.0000000000000000e+00  7.0710678118654746e-01  0.0000000000000000e+00
                         0.0000000000000000e+00  0.0000000000000000e+00  7.0710678118654746e-01  1.8000000000000000e+02  7.0710678118654746e-01  0.0000000000000000e+00  0.0000000000000000e+00  0.0000000000000000e+00
2.168000000000000e+00  0.0000000000000000e+00  0.0000000000000000e+00  7.0710678118654746e-01  0.0000000000000000e+00  7.0710678118654746e-01  0.0000000000000000e+00  0.0000000000000000e+00  0.0000000000000000e+00
                         7.0710678118654746e-01  0.0000000000000000e+00  0.0000000000000000e+00  0.0000000000000000e+00  0.0000000000000000e+00  0.0000000000000000e+00  7.0710678118654746e-01  1.8000000000000000e+02
                         7.0710678118654746e-01  0.0000000000000000e+00  0.0000000000000000e+00  0.0000000000000000e+00  0.0000000000000000e+00  0.0000000000000000e+00  7.0710678118654746e-01  0.0000000000000000e+00
                         0.0000000000000000e+00  0.0000000000000000e+00  7.0710678118654746e-01  1.8000000000000000e+02  7.0710678118654746e-01  0.0000000000000000e+00  0.0000000000000000e+00  0.0000000000000000e+00
2.169000000000000e+00  0.0000000000000000e+00  0.0000000000000000e+00  7.0710678118654746e-01  0.0000000000000000e+00  7.0710678118654746e-01  0.0000000000000000e+00  0.0000000000000000e+00  0.0000000000000000e+00
                         7.0710678118654746e-01  0.0000000000000000e+00  0.0000000000000000e+00  0.0000000000000000e+00  0.0000000000000000e+00  0.0000000000000000e+00  7.0710678118654746e-01  1.8000000000000000e+02
                         7.0710678118654746e-01  0.0000000000000000e+00  0.0000000000000000e+00  0.0000000000000000e+00  0.0000000000000000e+00  0.0000000000000000e+00  7.0710678118654746e-01  0.0000000000000000e+00
                         0.0000000000000000e+00  0.0000000000000000e+00  7.0710678118654746e-01  1.8000000000000000e+02  7.0710678118654746e-01  0.0000000000000000e+00  0.0000000000000000e+00  0.0000000000000000e+00
2.170000000000000e+00  0.0000000000000000e+00  0.0000000000000000e+00  7.0710678118654746e-01  0.0000000000000000e+00  7.0710678118654746e-01  0.0000000000000000e+00  0.0000000000000000e+00  0.0000000000000000e+00
                         7.0710678118654746e-01  0.0000000000000000e+00  0.0000000000000000e+00  0.0000000000000000e+00  0.0000000000000000e+00  0.0000000000000000e+00  7.0710678118654746e-01  1.8000000000000000e+02
                         7.0710678118654746e-01  0.0000000000000000e+00  0.0000000000000000e+00  0.0000000000000000e+00  0.0000000000000000e+00  0.0000000000000000e+00  7.0710678118654746e-01  0.0000000000000000e+00
                         0.0000000000000000e+00  0.0000000000000000e+00  7.0710678118654746e-01  1.8000000000000000e+02  7.0710678118654746e-01  0.0000000000000000e+00  0.0000000000000000e+00  0.0000000000000000e+00
2.171000000000000e+00  0.0000000000000000e+00  0.0000000000000000e+00  7.0710678118654746e-01  0.0000000000000000e+00  7.0710678118654746e-01  0.0000000000000000e+00  0.0000000000000000e+00  0.0000000000000000e+00
                         7.0710678118654746e-01  0.0000000000000000e+00  0.0000000000000000e+00  0.0000000000000000e+00  0.0000000000000000e+00  0.0000000000000000e+00  7.0710678118654746e-01  1.8000000000000000e+02
                         7.0710678118654746e-01  0.0000000000000000e+00  0.0000000000000000e+00  0.0000000000000000e+00  0.0000000000000000e+00  0.0000000000000000e+00  7.0710678118654746e-01  0.0000000000000000e+00
                         0.0000000000000000e+00  0.0000000000000000e+00  7.0710678118654746e-01  1.8000000000000000e+02  7.0710678118654746e-01  0.0000000000000000e+00  0.0000000000000000e+00  0.0000000000000000e+00
2.172000000000000e+00  0.0000000000000000e+00  0.0000000000000000e+00  7.0710678118654746e-01  0.0000000000000000e+00  7.0710678118654746e-01  0.0000000000000000e+00  0.0000000000000000e+00  0.0000000000000000e+00
                         7.0710678118654746e-01  0.0000000000000000e+00  0.0000000000000000e+00  0.0000000000000000e+00  0.0000000000000000e+00  0.0000000000000000e+00  7.0710678118654746e-01  1.8000000000000000e+02
                         7.0710678118654746e-01  0.0000000000000000e+00  0.0000000000000000e+00  0.0000000000000000e+00  0.0000000000000000e+00  0.0000000000000000e+00  7.0710678118654746e-01  0.0000000000000000e+00
                         0.0000000000000000e+00  0.0000000000000000e+00  7.0710678118654746e-01  1.8000000000000000e+02  7.0710678118654746e-01  0.0000000000000000e+00  0.0000000000000000e+00  0.0000000000000000e+00
2.173000000000000e+00  0.0000000000000000e+00  0.0000000000000000e+00  7.0710678118654746e-01  0.0000000000000000e+00  7.0710678118654746e-01  0.0000000000000000e+00  0.0000000000000000e+00  0.0000000000000000e+00
                         7.0710678118654746e-01  0.0000000000000000e+00  0.0000000000000000e+00  0.0000000000000000e+00  0.0000000000000000e+00  0.0000000000000000e+00  7.0710678118654746e-01  1.8000000000000000e+02
                         7.0710678118654746e-01  0.0000000000000000e+00  0.0000000000000000e+00  0.0000000000000000e+00  0.0000000000000000e+00  0.0000000000000000e+00  7.0710678118654746e-01  0.0000000000000000e+00
                         0.0000000000000000e+00  0.0000000000000000e+00  7.0710678118654746e-01  1.8000000000000000e+02  7.0710678118654746e-01  0.0000000000000000e+00  0.0000000000000000e+00  0.0000000000000000e+00
2.174000000000000e+00  0.0000000000000000e+00  0.0000000000000000e+00  7.0710678118654746e-01  0.0000000000000000e+00  7.0710678118654746e-01  0.0000000000000000e+00  0.0000000000000000e+00  0.0000000000000000e+00
                         7.0710678118654746e-01  0.0000000000000000e+00  0.0000000000000000e+00  0.0000000000000000e+00  0.0000000000000000e+00  0.0000000000000000e+00  7.0710678118654746e-01  1.8000000000000000e+02
                         7.0710678118654746e-01  0.0000000000000000e+00  0.0000000000000000e+00  0.0000000000000000e+00  0.0000000000000000e+00  0.0000000000000000e+00  7.0710678118654746e-01  0.0000000000000000e+00
                         0.0000000000000000e+00  0.0000000000000000e+00  7.0710678118654746e-01  1.8000000000000000e+02  7.0710678118654746e-01  0.0000000000000000e+00  0.0000000000000000e+00  0.0000000000000000e+00
2.175000000000000e+00  0.0000000000000000e+00  0.0000000000000000e+00  7.0710678118654746e-01  0.0000000000000000e+00  7.0710678118654746e-01  0.0000000000000000e+00  0.0000000000000000e+00  0.0000000000000000e+00
                         7.0710678118654746e-01  0.0000000000000000e+00  0.0000000000000000e+00  0.0000000000000000e+00  0.0000000000000000e+00  0.0000000000000000e+00  7.0710678118654746e-01  1.8000000000000000e+02
                         7.0710678118654746e-01  0.0000000000000000e+00  0.0000000000000000e+00  0.0000000000000000e+00  0.0000000000000000e+00  0.0000000000000000e+00  7.0710678118654746e-01  0.0000000000000000e+00
                         0.0000000000000000e+00  0.0000000000000000e+00  7.0710678118654746e-01  1.8000000000000000e+02  7.0710678118654746e-01  0.0000000000000000e+00  0.0000000000000000e+00  0.0000000000000000e+00
2.176000000000000e+00  0.0000000000000000e+00  0.0000000000000000e+00  7.0710678118654746e-01  0.0000000000000000e+00  7.0710678118654746e-01  0.0000000000000000e+00  0.0000000000000000e+00  0.0000000000000000e+00
                         7.0710678118654746e-01  0.0000000000000000e+00  0.0000000000000000e+00  0.0000000000000000e+00  0.0000000000000000e+00  0.0000000000000000e+00  7.0710678118654746e-01  1.8000000000000000e+02
                         7.0710678118654746e-01  0.0000000000000000e+00  0.0000000000000000e+00  0.0000000000000000e+00  0.0000000000000000e+00  0.0000000000000000e+00  7.0710678118654746e-01  0.0000000000000000e+00
                         0.0000000000000000e+00  0.0000000000000000e+00  7.0710678118654746e-01  1.8000000000000000e+02  7.0710678118654746e-01  0.0000000000000000e+00  0.0000000000000000e+00  0.0000000000000000e+00
2.177000000000000e+00  0.0000000000000000e+00  0.0000000000000000e+00  7.0710678118654746e-01  0.0000000000000000e+00  7.0710678118654746e-01  0.0000000000000000e+00  0.0000000000000000e+00  0.0000000000000000e+00
                         7.0710678118654746e-01  0.0000000000000000e+00  0.0000000000000000e+00  0.0000000000000000e+00  0.0000000000000000e+00  0.0000000000000000e+00  7.0710678118654746e-01  1.8000000000000000e+02
                         7.0710678118654746e-01  0.0000000000000000e+00  0.0000000000000000e+00  0.0000000000000000e+00  0.0000000000000000e+00  0.0000000000000000e+00  7.0710678118654746e-01  0.0000000000000000e+00
                         0.0000000000000000e+00  0.0000000000000000e+00  7.0710678118654746e-01  1.8000000000000000e+02  7.0710678118654746e-01  0.0000000000000000e+00  0.0000000000000000e+00  0.0000000000000000e+00
2.178000000000000e+00  0.0000000000000000e+00  0.0000000000000000e+00  7.0710678118654746e-01  0.0000000000000000e+00  7.0710678118654746e-01  0.0000000000000000e+00  0.0000000000000000e+00  0.0000000000000000e+00
                         7.0710678118654746e-01  0.0000000000000000e+00  0.0000000000000000e+00  0.0000000000000000e+00  0.0000000000000000e+00  0.0000000000000000e+00  7.0710678118654746e-01  1.8000000000000000e+02
                         7.0710678118654746e-01  0.0000000000000000e+00  0.0000000000000000e+00  0.0000000000000000e+00  0.0000000000000000e+00  0.0000000000000000e+00  7.0710678118654746e-01  0.0000000000000000e+00
                         0.0000000000000000e+00  0.0000000000000000e+00  7.0710678118654746e-01  1.8000000000000000e+02  7.0710678118654746e-01  0.0000000000000000e+00  0.0000000000000000e+00  0.0000000000000000e+00
2.179000000000000e+00  0.0000000000000000e+00  0.0000000000000000e+00  7.0710678118654746e-01  0.0000000000000000e+00  7.0710678118654746e-01  0.0000000000000000e+00  0.0000000000000000e+00  0.0000000000000000e+00
                         7.0710678118654746e-01  0.0000000000000000e+00  0.0000000000000000e+00  0.0000000000000000e+00  0.0000000000000000e+00  0.0000000000000000e+00  7.0710678118654746e-01  1.8000000000000000e+02
                         7.0710678118654746e-01  0.0000000000000000e+00  0.0000000000000000e+00  0.0000000000000000e+00  0.0000000000000000e+00  0.0000000000000000e+00  7.0710678118654746e-01  0.0000000000000000e+00
                         0.0000000000000000e+00  0.0000000000000000e+00  7.0710678118654746e-01  1.8000000000000000e+02  7.0710678118654746e-01  0.0000000000000000e+00  0.0000000000000000e+00  0.0000000000000000e+00
2.180000000000000e+00  0.0000000000000000e+00  0.0000000000000000e+00  7.0710678118654746e-01  0.0000000000000000e+00  7.0710678118654746e-01  0.0000000000000000e+00  0.0000000000000000e+00  0.0000000000000000e+00
                         7.0710678118654746e-01  0.0000000000000000e+00  0.0000000000000000e+00  0.0000000000000000e+00  0.0000000000000000e+00  0.0000000000000000e+00  7.0710678118654746e-01  1.8000000000000000e+02
                         7.0710678118654746e-01  0.0000000000000000e+00  0.0000000000000000e+00  0.0000000000000000e+00  0.0000000000000000e+00  0.0000000000000000e+00  7.0710678118654746e-01  0.0000000000000000e+00
                         0.0000000000000000e+00  0.0000000000000000e+00  7.0710678118654746e-01  1.8000000000000000e+02  7.0710678118654746e-01  0.0000000000000000e+00  0.0000000000000000e+00  0.0000000000000000e+00
2.181000000000000e+00  0.0000000000000000e+00  0.0000000000000000e+00  7.0710678118654746e-01  0.0000000000000000e+00  7.0710678118654746e-01  0.0000000000000000e+00  0.0000000000000000e+00  0.0000000000000000e+00
                         7.0710678118654746e-01  0.0000000000000000e+00  0.0000000000000000e+00  0.0000000000000000e+00  0.0000000000000000e+00  0.0000000000000000e+00  7.0710678118654746e-01  1.8000000000000000e+02
                         7.0710678118654746e-01  0.0000000000000000e+00  0.0000000000000000e+00  0.0000000000000000e+00  0.0000000000000000e+00  0.0000000000000000e+00  7.0710678118654746e-01  0.0000000000000000e+00
                         0.0000000000000000e+00  0.0000000000000000e+00  7.0710678118654746e-01  1.8000000000000000e+02  7.0710678118654746e-01  0.0000000000000000e+00  0.0000000000000000e+00  0.0000000000000000e+00
2.182000000000000e+00  0.0000000000000000e+00  0.0000000000000000e+00  7.0710678118654746e-01  0.0000000000000000e+00  7.0710678118654746e-01  0.0000000000000000e+00  0.0000000000000000e+00  0.0000000000000000e+00
                         7.0710678118654746e-01  0.0000000000000000e+00  0.0000000000000000e+00  0.0000000000000000e+00  0.0000000000000000e+00  0.0000000000000000e+00  7.0710678118654746e-01  1.8000000000000000e+02
                         7.0710678118654746e-01  0.0000000000000000e+00  0.0000000000000000e+00  0.0000000000000000e+00  0.0000000000000000e+00  0.0000000000000000e+00  7.0710678118654746e-01  0.0000000000000000e+00
                         0.0000000000000000e+00  0.0000000000000000e+00  7.0710678118654746e-01  1.8000000000000000e+02  7.0710678118654746e-01  0.0000000000000000e+00  0.0000000000000000e+00  0.0000000000000000e+00
2.183000000000000e+00  0.0000000000000000e+00  0.0000000000000000e+00  7.0710678118654746e-01  0.0000000000000000e+00  7.0710678118654746e-01  0.0000000000000000e+00  0.0000000000000000e+00  0.0000000000000000e+00
                         7.0710678118654746e-01  0.0000000000000000e+00  0.0000000000000000e+00  0.0000000000000000e+00  0.0000000000000000e+00  0.0000000000000000e+00  7.0710678118654746e-01  1.8000000000000000e+02
                         7.0710678118654746e-01  0.0000000000000000e+00  0.0000000000000000e+00  0.0000000000000000e+00  0.0000000000000000e+00  0.0000000000000000e+00  7.0710678118654746e-01  0.0000000000000000e+00
                         0.0000000000000000e+00  0.0000000000000000e+00  7.0710678118654746e-01  1.8000000000000000e+02  7.0710678118654746e-01  0.0000000000000000e+00  0.0000000000000000e+00  0.0000000000000000e+00
2.184000000000000e+00  0.0000000000000000e+00  0.0000000000000000e+00  7.0710678118654746e-01  0.0000000000000000e+00  7.0710678118654746e-01  0.0000000000000000e+00  0.0000000000000000e+00  0.0000000000000000e+00
                         7.0710678118654746e-01  0.0000000000000000e+00  0.0000000000000000e+00  0.0000000000000000e+00  0.0000000000000000e+00  0.0000000000000000e+00  7.0710678118654746e-01  1.8000000000000000e+02
                         7.0710678118654746e-01  0.0000000000000000e+00  0.0000000000000000e+00  0.0000000000000000e+00  0.0000000000000000e+00  0.0000000000000000e+00  7.0710678118654746e-01  0.0000000000000000e+00
                         0.0000000000000000e+00  0.0000000000000000e+00  7.0710678118654746e-01  1.8000000000000000e+02  7.0710678118654746e-01  0.0000000000000000e+00  0.0000000000000000e+00  0.0000000000000000e+00
2.185000000000000e+00  0.0000000000000000e+00  0.0000000000000000e+00  7.0710678118654746e-01  0.0000000000000000e+00  7.0710678118654746e-01  0.0000000000000000e+00  0.0000000000000000e+00  0.0000000000000000e+00
                         7.0710678118654746e-01  0.0000000000000000e+00  0.0000000000000000e+00  0.0000000000000000e+00  0.0000000000000000e+00  0.0000000000000000e+00  7.0710678118654746e-01  1.8000000000000000e+02
                         7.0710678118654746e-01  0.0000000000000000e+00  0.0000000000000000e+00  0.0000000000000000e+00  0.0000000000000000e+00  0.0000000000000000e+00  7.0710678118654746e-01  0.0000000000000000e+00
                         0.0000000000000000e+00  0.0000000000000000e+00  7.0710678118654746e-01  1.8000000000000000e+02  7.0710678118654746e-01  0.0000000000000000e+00  0.0000000000000000e+00  0.0000000000000000e+00
2.186000000000000e+00  0.0000000000000000e+00  0.0000000000000000e+00  7.0710678118654746e-01  0.0000000000000000e+00  7.0710678118654746e-01  0.0000000000000000e+00  0.0000000000000000e+00  0.0000000000000000e+00
                         7.0710678118654746e-01  0.0000000000000000e+00  0.0000000000000000e+00  0.0000000000000000e+00  0.0000000000000000e+00  0.0000000000000000e+00  7.0710678118654746e-01  1.8000000000000000e+02
                         7.0710678118654746e-01  0.0000000000000000e+00  0.0000000000000000e+00  0.0000000000000000e+00  0.0000000000000000e+00  0.0000000000000000e+00  7.0710678118654746e-01  0.0000000000000000e+00
                         0.0000000000000000e+00  0.0000000000000000e+00  7.0710678118654746e-01  1.8000000000000000e+02  7.0710678118654746e-01  0.0000000000000000e+00  0.0000000000000000e+00  0.0000000000000000e+00
2.187000000000000e+00  0.0000000000000000e+00  0.0000000000000000e+00  7.0710678118654746e-01  0.0000000000000000e+00  7.0710678118654746e-01  0.0000000000000000e+00  0.0000000000000000e+00  0.0000000000000000e+00
                         7.0710678118654746e-01  0.0000000000000000e+00  0.0000000000000000e+00  0.0000000000000000e+00  0.0000000000000000e+00  0.0000000000000000e+00  7.0710678118654746e-01  1.8000000000000000e+02
                         7.0710678118654746e-01  0.0000000000000000e+00  0.0000000000000000e+00  0.0000000000000000e+00  0.0000000000000000e+00  0.0000000000000000e+00  7.0710678118654746e-01  0.0000000000000000e+00
                         0.0000000000000000e+00  0.0000000000000000e+00  7.0710678118654746e-01  1.8000000000000000e+02  7.0710678118654746e-01  0.0000000000000000e+00  0.0000000000000000e+00  0.0000000000000000e+00
2.188000000000000e+00  0.0000000000000000e+00  0.0000000000000000e+00  7.0710678118654746e-01  0.0000000000000000e+00  7.0710678118654746e-01  0.0000000000000000e+00  0.0000000000000000e+00  0.0000000000000000e+00
                         7.0710678118654746e-01  0.0000000000000000e+00  0.0000000000000000e+00  0.0000000000000000e+00  0.0000000000000000e+00  0.0000000000000000e+00  7.0710678118654746e-01  1.8000000000000000e+02
                         7.0710678118654746e-01  0.0000000000000000e+00  0.0000000000000000e+00  0.0000000000000000e+00  0.0000000000000000e+00  0.0000000000000000e+00  7.0710678118654746e-01  0.0000000000000000e+00
                         0.0000000000000000e+00  0.0000000000000000e+00  7.0710678118654746e-01  1.8000000000000000e+02  7.0710678118654746e-01  0.0000000000000000e+00  0.0000000000000000e+00  0.0000000000000000e+00
2.189000000000000e+00  0.0000000000000000e+00  0.0000000000000000e+00  7.0710678118654746e-01  0.0000000000000000e+00  7.0710678118654746e-01  0.0000000000000000e+00  0.0000000000000000e+00  0.0000000000000000e+00
                         7.0710678118654746e-01  0.0000000000000000e+00  0.0000000000000000e+00  0.0000000000000000e+00  0.0000000000000000e+00  0.0000000000000000e+00  7.0710678118654746e-01  1.8000000000000000e+02
                         7.0710678118654746e-01  0.0000000000000000e+00  0.0000000000000000e+00  0.0000000000000000e+00  0.0000000000000000e+00  0.0000000000000000e+00  7.0710678118654746e-01  0.0000000000000000e+00
                         0.0000000000000000e+00  0.0000000000000000e+00  7.0710678118654746e-01  1.8000000000000000e+02  7.0710678118654746e-01  0.0000000000000000e+00  0.0000000000000000e+00  0.0000000000000000e+00
2.190000000000000e+00  0.0000000000000000e+00  0.0000000000000000e+00  7.0710678118654746e-01  0.0000000000000000e+00  7.0710678118654746e-01  0.0000000000000000e+00  0.0000000000000000e+00  0.0000000000000000e+00
                         7.0710678118654746e-01  0.0000000000000000e+00  0.0000000000000000e+00  0.0000000000000000e+00  0.0000000000000000e+00  0.0000000000000000e+00  7.0710678118654746e-01  1.8000000000000000e+02
                         7.0710678118654746e-01  0.0000000000000000e+00  0.0000000000000000e+00  0.0000000000000000e+00  0.0000000000000000e+00  0.0000000000000000e+00  7.0710678118654746e-01  0.0000000000000000e+00
                         0.0000000000000000e+00  0.0000000000000000e+00  7.0710678118654746e-01  1.8000000000000000e+02  7.0710678118654746e-01  0.0000000000000000e+00  0.0000000000000000e+00  0.0000000000000000e+00
2.191000000000000e+00  0.0000000000000000e+00  0.0000000000000000e+00  7.0710678118654746e-01  0.0000000000000000e+00  7.0710678118654746e-01  0.0000000000000000e+00  0.0000000000000000e+00  0.0000000000000000e+00
                         7.0710678118654746e-01  0.0000000000000000e+00  0.0000000000000000e+00  0.0000000000000000e+00  0.0000000000000000e+00  0.0000000000000000e+00  7.0710678118654746e-01  1.8000000000000000e+02
                         7.0710678118654746e-01  0.0000000000000000e+00  0.0000000000000000e+00  0.0000000000000000e+00  0.0000000000000000e+00  0.0000000000000000e+00  7.0710678118654746e-01  0.0000000000000000e+00
                         0.0000000000000000e+00  0.0000000000000000e+00  7.0710678118654746e-01  1.8000000000000000e+02  7.0710678118654746e-01  0.0000000000000000e+00  0.0000000000000000e+00  0.0000000000000000e+00
2.192000000000000e+00  0.0000000000000000e+00  0.0000000000000000e+00  7.0710678118654746e-01  0.0000000000000000e+00  7.0710678118654746e-01  0.0000000000000000e+00  0.0000000000000000e+00  0.0000000000000000e+00
                         7.0710678118654746e-01  0.0000000000000000e+00  0.0000000000000000e+00  0.0000000000000000e+00  0.0000000000000000e+00  0.0000000000000000e+00  7.0710678118654746e-01  1.8000000000000000e+02
                         7.0710678118654746e-01  0.0000000000000000e+00  0.0000000000000000e+00  0.0000000000000000e+00  0.0000000000000000e+00  0.0000000000000000e+00  7.0710678118654746e-01  0.0000000000000000e+00
                         0.0000000000000000e+00  0.0000000000000000e+00  7.0710678118654746e-01  1.8000000000000000e+02  7.0710678118654746e-01  0.0000000000000000e+00  0.0000000000000000e+00  0.0000000000000000e+00
2.193000000000000e+00  0.0000000000000000e+00  0.0000000000000000e+00  7.0710678118654746e-01  0.0000000000000000e+00  7.0710678118654746e-01  0.0000000000000000e+00  0.0000000000000000e+00  0.0000000000000000e+00
                         7.0710678118654746e-01  0.0000000000000000e+00  0.0000000000000000e+00  0.0000000000000000e+00  0.0000000000000000e+00  0.0000000000000000e+00  7.0710678118654746e-01  1.8000000000000000e+02
                         7.0710678118654746e-01  0.0000000000000000e+00  0.0000000000000000e+00  0.0000000000000000e+00  0.0000000000000000e+00  0.0000000000000000e+00  7.0710678118654746e-01  0.0000000000000000e+00
                         0.0000000000000000e+00  0.0000000000000000e+00  7.0710678118654746e-01  1.8000000000000000e+02  7.0710678118654746e-01  0.0000000000000000e+00  0.0000000000000000e+00  0.0000000000000000e+00
2.194000000000000e+00  0.0000000000000000e+00  0.0000000000000000e+00  7.0710678118654746e-01  0.0000000000000000e+00  7.0710678118654746e-01  0.0000000000000000e+00  0.0000000000000000e+00  0.0000000000000000e+00
                         7.0710678118654746e-01  0.0000000000000000e+00  0.0000000000000000e+00  0.0000000000000000e+00  0.0000000000000000e+00  0.0000000000000000e+00  7.0710678118654746e-01  1.8000000000000000e+02
                         7.0710678118654746e-01  0.0000000000000000e+00  0.0000000000000000e+00  0.0000000000000000e+00  0.0000000000000000e+00  0.0000000000000000e+00  7.0710678118654746e-01  0.0000000000000000e+00
                         0.0000000000000000e+00  0.0000000000000000e+00  7.0710678118654746e-01  1.8000000000000000e+02  7.0710678118654746e-01  0.0000000000000000e+00  0.0000000000000000e+00  0.0000000000000000e+00
2.195000000000000e+00  0.0000000000000000e+00  0.0000000000000000e+00  7.0710678118654746e-01  0.0000000000000000e+00  7.0710678118654746e-01  0.0000000000000000e+00  0.0000000000000000e+00  0.0000000000000000e+00
                         7.0710678118654746e-01  0.0000000000000000e+00  0.0000000000000000e+00  0.0000000000000000e+00  0.0000000000000000e+00  0.0000000000000000e+00  7.0710678118654746e-01  1.8000000000000000e+02
                         7.0710678118654746e-01  0.0000000000000000e+00  0.0000000000000000e+00  0.0000000000000000e+00  0.0000000000000000e+00  0.0000000000000000e+00  7.0710678118654746e-01  0.0000000000000000e+00
                         0.0000000000000000e+00  0.0000000000000000e+00  7.0710678118654746e-01  1.8000000000000000e+02  7.0710678118654746e-01  0.0000000000000000e+00  0.0000000000000000e+00  0.0000000000000000e+00
2.196000000000000e+00  0.0000000000000000e+00  0.0000000000000000e+00  7.0710678118654746e-01  0.0000000000000000e+00  7.0710678118654746e-01  0.0000000000000000e+00  0.0000000000000000e+00  0.0000000000000000e+00
                         7.0710678118654746e-01  0.0000000000000000e+00  0.0000000000000000e+00  0.0000000000000000e+00  0.0000000000000000e+00  0.0000000000000000e+00  7.0710678118654746e-01  1.8000000000000000e+02
                         7.0710678118654746e-01  0.0000000000000000e+00  0.0000000000000000e+00  0.0000000000000000e+00  0.0000000000000000e+00  0.0000000000000000e+00  7.0710678118654746e-01  0.0000000000000000e+00
                         0.0000000000000000e+00  0.0000000000000000e+00  7.0710678118654746e-01  1.8000000000000000e+02  7.0710678118654746e-01  0.0000000000000000e+00  0.0000000000000000e+00  0.0000000000000000e+00
2.197000000000000e+00  0.0000000000000000e+00  0.0000000000000000e+00  7.0710678118654746e-01  0.0000000000000000e+00  7.0710678118654746e-01  0.0000000000000000e+00  0.0000000000000000e+00  0.0000000000000000e+00
                         7.0710678118654746e-01  0.0000000000000000e+00  0.0000000000000000e+00  0.0000000000000000e+00  0.0000000000000000e+00  0.0000000000000000e+00  7.0710678118654746e-01  1.8000000000000000e+02
                         7.0710678118654746e-01  0.0000000000000000e+00  0.0000000000000000e+00  0.0000000000000000e+00  0.0000000000000000e+00  0.0000000000000000e+00  7.0710678118654746e-01  0.0000000000000000e+00
                         0.0000000000000000e+00  0.0000000000000000e+00  7.0710678118654746e-01  1.8000000000000000e+02  7.0710678118654746e-01  0.0000000000000000e+00  0.0000000000000000e+00  0.0000000000000000e+00
2.198000000000000e+00  0.0000000000000000e+00  0.0000000000000000e+00  7.0710678118654746e-01  0.0000000000000000e+00  7.0710678118654746e-01  0.0000000000000000e+00  0.0000000000000000e+00  0.0000000000000000e+00
                         7.0710678118654746e-01  0.0000000000000000e+00  0.0000000000000000e+00  0.0000000000000000e+00  0.0000000000000000e+00  0.0000000000000000e+00  7.0710678118654746e-01  1.8000000000000000e+02
                         7.0710678118654746e-01  0.0000000000000000e+00  0.0000000000000000e+00  0.0000000000000000e+00  0.0000000000000000e+00  0.0000000000000000e+00  7.0710678118654746e-01  0.0000000000000000e+00
                         0.0000000000000000e+00  0.0000000000000000e+00  7.0710678118654746e-01  1.8000000000000000e+02  7.0710678118654746e-01  0.0000000000000000e+00  0.0000000000000000e+00  0.0000000000000000e+00
2.199000000000000e+00  0.0000000000000000e+00  0.0000000000000000e+00  7.0710678118654746e-01  0.0000000000000000e+00  7.0710678118654746e-01  0.0000000000000000e+00  0.0000000000000000e+00  0.0000000000000000e+00
                         7.0710678118654746e-01  0.0000000000000000e+00  0.0000000000000000e+00  0.0000000000000000e+00  0.0000000000000000e+00  0.0000000000000000e+00  7.0710678118654746e-01  1.8000000000000000e+02
                         7.0710678118654746e-01  0.0000000000000000e+00  0.0000000000000000e+00  0.0000000000000000e+00  0.0000000000000000e+00  0.0000000000000000e+00  7.0710678118654746e-01  0.0000000000000000e+00
                         0.0000000000000000e+00  0.0000000000000000e+00  7.0710678118654746e-01  1.8000000000000000e+02  7.0710678118654746e-01  0.0000000000000000e+00  0.0000000000000000e+00  0.0000000000000000e+00
2.200000000000000e+00  0.0000000000000000e+00  0.0000000000000000e+00  7.0710678118654746e-01  0.0000000000000000e+00  7.0710678118654746e-01  0.0000000000000000e+00  0.0000000000000000e+00  0.0000000000000000e+00
                         7.0710678118654746e-01  0.0000000000000000e+00  0.0000000000000000e+00  0.0000000000000000e+00  0.0000000000000000e+00  0.0000000000000000e+00  7.0710678118654746e-01  1.8000000000000000e+02
                         7.0710678118654746e-01  0.0000000000000000e+00  0.0000000000000000e+00  0.0000000000000000e+00  0.0000000000000000e+00  0.0000000000000000e+00  7.0710678118654746e-01  0.0000000000000000e+00
                         0.0000000000000000e+00  0.0000000000000000e+00  7.0710678118654746e-01  1.8000000000000000e+02  7.0710678118654746e-01  0.0000000000000000e+00  0.0000000000000000e+00  0.0000000000000000e+00
2.201000000000000e+00  0.0000000000000000e+00  0.0000000000000000e+00  7.0710678118654746e-01  0.0000000000000000e+00  7.0710678118654746e-01  0.0000000000000000e+00  0.0000000000000000e+00  0.0000000000000000e+00
                         7.0710678118654746e-01  0.0000000000000000e+00  0.0000000000000000e+00  0.0000000000000000e+00  0.0000000000000000e+00  0.0000000000000000e+00  7.0710678118654746e-01  1.8000000000000000e+02
                         7.0710678118654746e-01  0.0000000000000000e+00  0.0000000000000000e+00  0.0000000000000000e+00  0.0000000000000000e+00  0.0000000000000000e+00  7.0710678118654746e-01  0.0000000000000000e+00
                         0.0000000000000000e+00  0.0000000000000000e+00  7.0710678118654746e-01  1.8000000000000000e+02  7.0710678118654746e-01  0.0000000000000000e+00  0.0000000000000000e+00  0.0000000000000000e+00
2.202000000000000e+00  0.0000000000000000e+00  0.0000000000000000e+00  7.0710678118654746e-01  0.0000000000000000e+00  7.0710678118654746e-01  0.0000000000000000e+00  0.0000000000000000e+00  0.0000000000000000e+00
                         7.0710678118654746e-01  0.0000000000000000e+00  0.0000000000000000e+00  0.0000000000000000e+00  0.0000000000000000e+00  0.0000000000000000e+00  7.0710678118654746e-01  1.8000000000000000e+02
                         7.0710678118654746e-01  0.0000000000000000e+00  0.0000000000000000e+00  0.0000000000000000e+00  0.0000000000000000e+00  0.0000000000000000e+00  7.0710678118654746e-01  0.0000000000000000e+00
                         0.0000000000000000e+00  0.0000000000000000e+00  7.0710678118654746e-01  1.8000000000000000e+02  7.0710678118654746e-01  0.0000000000000000e+00  0.0000000000000000e+00  0.0000000000000000e+00
2.203000000000000e+00  0.0000000000000000e+00  0.0000000000000000e+00  7.0710678118654746e-01  0.0000000000000000e+00  7.0710678118654746e-01  0.0000000000000000e+00  0.0000000000000000e+00  0.0000000000000000e+00
                         7.0710678118654746e-01  0.0000000000000000e+00  0.0000000000000000e+00  0.0000000000000000e+00  0.0000000000000000e+00  0.0000000000000000e+00  7.0710678118654746e-01  1.8000000000000000e+02
                         7.0710678118654746e-01  0.0000000000000000e+00  0.0000000000000000e+00  0.0000000000000000e+00  0.0000000000000000e+00  0.0000000000000000e+00  7.0710678118654746e-01  0.0000000000000000e+00
                         0.0000000000000000e+00  0.0000000000000000e+00  7.0710678118654746e-01  1.8000000000000000e+02  7.0710678118654746e-01  0.0000000000000000e+00  0.0000000000000000e+00  0.0000000000000000e+00
2.204000000000000e+00  0.0000000000000000e+00  0.0000000000000000e+00  7.0710678118654746e-01  0.0000000000000000e+00  7.0710678118654746e-01  0.0000000000000000e+00  0.0000000000000000e+00  0.0000000000000000e+00
                         7.0710678118654746e-01  0.0000000000000000e+00  0.0000000000000000e+00  0.0000000000000000e+00  0.0000000000000000e+00  0.0000000000000000e+00  7.0710678118654746e-01  1.8000000000000000e+02
                         7.0710678118654746e-01  0.0000000000000000e+00  0.0000000000000000e+00  0.0000000000000000e+00  0.0000000000000000e+00  0.0000000000000000e+00  7.0710678118654746e-01  0.0000000000000000e+00
                         0.0000000000000000e+00  0.0000000000000000e+00  7.0710678118654746e-01  1.8000000000000000e+02  7.0710678118654746e-01  0.0000000000000000e+00  0.0000000000000000e+00  0.0000000000000000e+00
2.205000000000000e+00  0.0000000000000000e+00  0.0000000000000000e+00  7.0710678118654746e-01  0.0000000000000000e+00  7.0710678118654746e-01  0.0000000000000000e+00  0.0000000000000000e+00  0.0000000000000000e+00
                         7.0710678118654746e-01  0.0000000000000000e+00  0.0000000000000000e+00  0.0000000000000000e+00  0.0000000000000000e+00  0.0000000000000000e+00  7.0710678118654746e-01  1.8000000000000000e+02
                         7.0710678118654746e-01  0.0000000000000000e+00  0.0000000000000000e+00  0.0000000000000000e+00  0.0000000000000000e+00  0.0000000000000000e+00  7.0710678118654746e-01  0.0000000000000000e+00
                         0.0000000000000000e+00  0.0000000000000000e+00  7.0710678118654746e-01  1.8000000000000000e+02  7.0710678118654746e-01  0.0000000000000000e+00  0.0000000000000000e+00  0.0000000000000000e+00
2.206000000000000e+00  0.0000000000000000e+00  0.0000000000000000e+00  7.0710678118654746e-01  0.0000000000000000e+00  7.0710678118654746e-01  0.0000000000000000e+00  0.0000000000000000e+00  0.0000000000000000e+00
                         7.0710678118654746e-01  0.0000000000000000e+00  0.0000000000000000e+00  0.0000000000000000e+00  0.0000000000000000e+00  0.0000000000000000e+00  7.0710678118654746e-01  1.8000000000000000e+02
                         7.0710678118654746e-01  0.0000000000000000e+00  0.0000000000000000e+00  0.0000000000000000e+00  0.0000000000000000e+00  0.0000000000000000e+00  7.0710678118654746e-01  0.0000000000000000e+00
                         0.0000000000000000e+00  0.0000000000000000e+00  7.0710678118654746e-01  1.8000000000000000e+02  7.0710678118654746e-01  0.0000000000000000e+00  0.0000000000000000e+00  0.0000000000000000e+00
2.207000000000000e+00  0.0000000000000000e+00  0.0000000000000000e+00  7.0710678118654746e-01  0.0000000000000000e+00  7.0710678118654746e-01  0.0000000000000000e+00  0.0000000000000000e+00  0.0000000000000000e+00
                         7.0710678118654746e-01  0.0000000000000000e+00  0.0000000000000000e+00  0.0000000000000000e+00  0.0000000000000000e+00  0.0000000000000000e+00  7.0710678118654746e-01  1.8000000000000000e+02
                         7.0710678118654746e-01  0.0000000000000000e+00  0.0000000000000000e+00  0.0000000000000000e+00  0.0000000000000000e+00  0.0000000000000000e+00  7.0710678118654746e-01  0.0000000000000000e+00
                         0.0000000000000000e+00  0.0000000000000000e+00  7.0710678118654746e-01  1.8000000000000000e+02  7.0710678118654746e-01  0.0000000000000000e+00  0.0000000000000000e+00  0.0000000000000000e+00
2.208000000000000e+00  0.0000000000000000e+00  0.0000000000000000e+00  7.0710678118654746e-01  0.0000000000000000e+00  7.0710678118654746e-01  0.0000000000000000e+00  0.0000000000000000e+00  0.0000000000000000e+00
                         7.0710678118654746e-01  0.0000000000000000e+00  0.0000000000000000e+00  0.0000000000000000e+00  0.0000000000000000e+00  0.0000000000000000e+00  7.0710678118654746e-01  1.8000000000000000e+02
                         7.0710678118654746e-01  0.0000000000000000e+00  0.0000000000000000e+00  0.0000000000000000e+00  0.0000000000000000e+00  0.0000000000000000e+00  7.0710678118654746e-01  0.0000000000000000e+00
                         0.0000000000000000e+00  0.0000000000000000e+00  7.0710678118654746e-01  1.8000000000000000e+02  7.0710678118654746e-01  0.0000000000000000e+00  0.0000000000000000e+00  0.0000000000000000e+00
2.209000000000000e+00  0.0000000000000000e+00  0.0000000000000000e+00  7.0710678118654746e-01  0.0000000000000000e+00  7.0710678118654746e-01  0.0000000000000000e+00  0.0000000000000000e+00  0.0000000000000000e+00
                         7.0710678118654746e-01  0.0000000000000000e+00  0.0000000000000000e+00  0.0000000000000000e+00  0.0000000000000000e+00  0.0000000000000000e+00  7.0710678118654746e-01  1.8000000000000000e+02
                         7.0710678118654746e-01  0.0000000000000000e+00  0.0000000000000000e+00  0.0000000000000000e+00  0.0000000000000000e+00  0.0000000000000000e+00  7.0710678118654746e-01  0.0000000000000000e+00
                         0.0000000000000000e+00  0.0000000000000000e+00  7.0710678118654746e-01  1.8000000000000000e+02  7.0710678118654746e-01  0.0000000000000000e+00  0.0000000000000000e+00  0.0000000000000000e+00
2.210000000000000e+00  0.0000000000000000e+00  0.0000000000000000e+00  7.0710678118654746e-01  0.0000000000000000e+00  7.0710678118654746e-01  0.0000000000000000e+00  0.0000000000000000e+00  0.0000000000000000e+00
                         7.0710678118654746e-01  0.0000000000000000e+00  0.0000000000000000e+00  0.0000000000000000e+00  0.0000000000000000e+00  0.0000000000000000e+00  7.0710678118654746e-01  1.8000000000000000e+02
                         7.0710678118654746e-01  0.0000000000000000e+00  0.0000000000000000e+00  0.0000000000000000e+00  0.0000000000000000e+00  0.0000000000000000e+00  7.0710678118654746e-01  0.0000000000000000e+00
                         0.0000000000000000e+00  0.0000000000000000e+00  7.0710678118654746e-01  1.8000000000000000e+02  7.0710678118654746e-01  0.0000000000000000e+00  0.0000000000000000e+00  0.0000000000000000e+00
2.211000000000000e+00  0.0000000000000000e+00  0.0000000000000000e+00  7.0710678118654746e-01  0.0000000000000000e+00  7.0710678118654746e-01  0.0000000000000000e+00  0.0000000000000000e+00  0.0000000000000000e+00
                         7.0710678118654746e-01  0.0000000000000000e+00  0.0000000000000000e+00  0.0000000000000000e+00  0.0000000000000000e+00  0.0000000000000000e+00  7.0710678118654746e-01  1.8000000000000000e+02
                         7.0710678118654746e-01  0.0000000000000000e+00  0.0000000000000000e+00  0.0000000000000000e+00  0.0000000000000000e+00  0.0000000000000000e+00  7.0710678118654746e-01  0.0000000000000000e+00
                         0.0000000000000000e+00  0.0000000000000000e+00  7.0710678118654746e-01  1.8000000000000000e+02  7.0710678118654746e-01  0.0000000000000000e+00  0.0000000000000000e+00  0.0000000000000000e+00
2.212000000000000e+00  0.0000000000000000e+00  0.0000000000000000e+00  7.0710678118654746e-01  0.0000000000000000e+00  7.0710678118654746e-01  0.0000000000000000e+00  0.0000000000000000e+00  0.0000000000000000e+00
                         7.0710678118654746e-01  0.0000000000000000e+00  0.0000000000000000e+00  0.0000000000000000e+00  0.0000000000000000e+00  0.0000000000000000e+00  7.0710678118654746e-01  1.8000000000000000e+02
                         7.0710678118654746e-01  0.0000000000000000e+00  0.0000000000000000e+00  0.0000000000000000e+00  0.0000000000000000e+00  0.0000000000000000e+00  7.0710678118654746e-01  0.0000000000000000e+00
                         0.0000000000000000e+00  0.0000000000000000e+00  7.0710678118654746e-01  1.8000000000000000e+02  7.0710678118654746e-01  0.0000000000000000e+00  0.0000000000000000e+00  0.0000000000000000e+00
2.213000000000000e+00  0.0000000000000000e+00  0.0000000000000000e+00  7.0710678118654746e-01  0.0000000000000000e+00  7.0710678118654746e-01  0.0000000000000000e+00  0.0000000000000000e+00  0.0000000000000000e+00
                         7.0710678118654746e-01  0.0000000000000000e+00  0.0000000000000000e+00  0.0000000000000000e+00  0.0000000000000000e+00  0.0000000000000000e+00  7.0710678118654746e-01  1.8000000000000000e+02
                         7.0710678118654746e-01  0.0000000000000000e+00  0.0000000000000000e+00  0.0000000000000000e+00  0.0000000000000000e+00  0.0000000000000000e+00  7.0710678118654746e-01  0.0000000000000000e+00
                         0.0000000000000000e+00  0.0000000000000000e+00  7.0710678118654746e-01  1.8000000000000000e+02  7.0710678118654746e-01  0.0000000000000000e+00  0.0000000000000000e+00  0.0000000000000000e+00
2.214000000000000e+00  0.0000000000000000e+00  0.0000000000000000e+00  7.0710678118654746e-01  0.0000000000000000e+00  7.0710678118654746e-01  0.0000000000000000e+00  0.0000000000000000e+00  0.0000000000000000e+00
                         7.0710678118654746e-01  0.0000000000000000e+00  0.0000000000000000e+00  0.0000000000000000e+00  0.0000000000000000e+00  0.0000000000000000e+00  7.0710678118654746e-01  1.8000000000000000e+02
                         7.0710678118654746e-01  0.0000000000000000e+00  0.0000000000000000e+00  0.0000000000000000e+00  0.0000000000000000e+00  0.0000000000000000e+00  7.0710678118654746e-01  0.0000000000000000e+00
                         0.0000000000000000e+00  0.0000000000000000e+00  7.0710678118654746e-01  1.8000000000000000e+02  7.0710678118654746e-01  0.0000000000000000e+00  0.0000000000000000e+00  0.0000000000000000e+00
2.215000000000000e+00  0.0000000000000000e+00  0.0000000000000000e+00  7.0710678118654746e-01  0.0000000000000000e+00  7.0710678118654746e-01  0.0000000000000000e+00  0.0000000000000000e+00  0.0000000000000000e+00
                         7.0710678118654746e-01  0.0000000000000000e+00  0.0000000000000000e+00  0.0000000000000000e+00  0.0000000000000000e+00  0.0000000000000000e+00  7.0710678118654746e-01  1.8000000000000000e+02
                         7.0710678118654746e-01  0.0000000000000000e+00  0.0000000000000000e+00  0.0000000000000000e+00  0.0000000000000000e+00  0.0000000000000000e+00  7.0710678118654746e-01  0.0000000000000000e+00
                         0.0000000000000000e+00  0.0000000000000000e+00  7.0710678118654746e-01  1.8000000000000000e+02  7.0710678118654746e-01  0.0000000000000000e+00  0.0000000000000000e+00  0.0000000000000000e+00
2.216000000000000e+00  0.0000000000000000e+00  0.0000000000000000e+00  7.0710678118654746e-01  0.0000000000000000e+00  7.0710678118654746e-01  0.0000000000000000e+00  0.0000000000000000e+00  0.0000000000000000e+00
                         7.0710678118654746e-01  0.0000000000000000e+00  0.0000000000000000e+00  0.0000000000000000e+00  0.0000000000000000e+00  0.0000000000000000e+00  7.0710678118654746e-01  1.8000000000000000e+02
                         7.0710678118654746e-01  0.0000000000000000e+00  0.0000000000000000e+00  0.0000000000000000e+00  0.0000000000000000e+00  0.0000000000000000e+00  7.0710678118654746e-01  0.0000000000000000e+00
                         0.0000000000000000e+00  0.0000000000000000e+00  7.0710678118654746e-01  1.8000000000000000e+02  7.0710678118654746e-01  0.0000000000000000e+00  0.0000000000000000e+00  0.0000000000000000e+00
2.217000000000000e+00  0.0000000000000000e+00  0.0000000000000000e+00  7.0710678118654746e-01  0.0000000000000000e+00  7.0710678118654746e-01  0.0000000000000000e+00  0.0000000000000000e+00  0.0000000000000000e+00
                         7.0710678118654746e-01  0.0000000000000000e+00  0.0000000000000000e+00  0.0000000000000000e+00  0.0000000000000000e+00  0.0000000000000000e+00  7.0710678118654746e-01  1.8000000000000000e+02
                         7.0710678118654746e-01  0.0000000000000000e+00  0.0000000000000000e+00  0.0000000000000000e+00  0.0000000000000000e+00  0.0000000000000000e+00  7.0710678118654746e-01  0.0000000000000000e+00
                         0.0000000000000000e+00  0.0000000000000000e+00  7.0710678118654746e-01  1.8000000000000000e+02  7.0710678118654746e-01  0.0000000000000000e+00  0.0000000000000000e+00  0.0000000000000000e+00
2.218000000000000e+00  0.0000000000000000e+00  0.0000000000000000e+00  7.0710678118654746e-01  0.0000000000000000e+00  7.0710678118654746e-01  0.0000000000000000e+00  0.0000000000000000e+00  0.0000000000000000e+00
                         7.0710678118654746e-01  0.0000000000000000e+00  0.0000000000000000e+00  0.0000000000000000e+00  0.0000000000000000e+00  0.0000000000000000e+00  7.0710678118654746e-01  1.8000000000000000e+02
                         7.0710678118654746e-01  0.0000000000000000e+00  0.0000000000000000e+00  0.0000000000000000e+00  0.0000000000000000e+00  0.0000000000000000e+00  7.0710678118654746e-01  0.0000000000000000e+00
                         0.0000000000000000e+00  0.0000000000000000e+00  7.0710678118654746e-01  1.8000000000000000e+02  7.0710678118654746e-01  0.0000000000000000e+00  0.0000000000000000e+00  0.0000000000000000e+00
2.219000000000000e+00  0.0000000000000000e+00  0.0000000000000000e+00  7.0710678118654746e-01  0.0000000000000000e+00  7.0710678118654746e-01  0.0000000000000000e+00  0.0000000000000000e+00  0.0000000000000000e+00
                         7.0710678118654746e-01  0.0000000000000000e+00  0.0000000000000000e+00  0.0000000000000000e+00  0.0000000000000000e+00  0.0000000000000000e+00  7.0710678118654746e-01  1.8000000000000000e+02
                         7.0710678118654746e-01  0.0000000000000000e+00  0.0000000000000000e+00  0.0000000000000000e+00  0.0000000000000000e+00  0.0000000000000000e+00  7.0710678118654746e-01  0.0000000000000000e+00
                         0.0000000000000000e+00  0.0000000000000000e+00  7.0710678118654746e-01  1.8000000000000000e+02  7.0710678118654746e-01  0.0000000000000000e+00  0.0000000000000000e+00  0.0000000000000000e+00
2.220000000000000e+00  0.0000000000000000e+00  0.0000000000000000e+00  7.0710678118654746e-01  0.0000000000000000e+00  7.0710678118654746e-01  0.0000000000000000e+00  0.0000000000000000e+00  0.0000000000000000e+00
                         7.0710678118654746e-01  0.0000000000000000e+00  0.0000000000000000e+00  0.0000000000000000e+00  0.0000000000000000e+00  0.0000000000000000e+00  7.0710678118654746e-01  1.8000000000000000e+02
                         7.0710678118654746e-01  0.0000000000000000e+00  0.0000000000000000e+00  0.0000000000000000e+00  0.0000000000000000e+00  0.0000000000000000e+00  7.0710678118654746e-01  0.0000000000000000e+00
                         0.0000000000000000e+00  0.0000000000000000e+00  7.0710678118654746e-01  1.8000000000000000e+02  7.0710678118654746e-01  0.0000000000000000e+00  0.0000000000000000e+00  0.0000000000000000e+00
2.221000000000000e+00  0.0000000000000000e+00  0.0000000000000000e+00  7.0710678118654746e-01  0.0000000000000000e+00  7.0710678118654746e-01  0.0000000000000000e+00  0.0000000000000000e+00  0.0000000000000000e+00
                         7.0710678118654746e-01  0.0000000000000000e+00  0.0000000000000000e+00  0.0000000000000000e+00  0.0000000000000000e+00  0.0000000000000000e+00  7.0710678118654746e-01  1.8000000000000000e+02
                         7.0710678118654746e-01  0.0000000000000000e+00  0.0000000000000000e+00  0.0000000000000000e+00  0.0000000000000000e+00  0.0000000000000000e+00  7.0710678118654746e-01  0.0000000000000000e+00
                         0.0000000000000000e+00  0.0000000000000000e+00  7.0710678118654746e-01  1.8000000000000000e+02  7.0710678118654746e-01  0.0000000000000000e+00  0.0000000000000000e+00  0.0000000000000000e+00
2.222000000000000e+00  0.0000000000000000e+00  0.0000000000000000e+00  7.0710678118654746e-01  0.0000000000000000e+00  7.0710678118654746e-01  0.0000000000000000e+00  0.0000000000000000e+00  0.0000000000000000e+00
                         7.0710678118654746e-01  0.0000000000000000e+00  0.0000000000000000e+00  0.0000000000000000e+00  0.0000000000000000e+00  0.0000000000000000e+00  7.0710678118654746e-01  1.8000000000000000e+02
                         7.0710678118654746e-01  0.0000000000000000e+00  0.0000000000000000e+00  0.0000000000000000e+00  0.0000000000000000e+00  0.0000000000000000e+00  7.0710678118654746e-01  0.0000000000000000e+00
                         0.0000000000000000e+00  0.0000000000000000e+00  7.0710678118654746e-01  1.8000000000000000e+02  7.0710678118654746e-01  0.0000000000000000e+00  0.0000000000000000e+00  0.0000000000000000e+00
2.223000000000000e+00  0.0000000000000000e+00  0.0000000000000000e+00  7.0710678118654746e-01  0.0000000000000000e+00  7.0710678118654746e-01  0.0000000000000000e+00  0.0000000000000000e+00  0.0000000000000000e+00
                         7.0710678118654746e-01  0.0000000000000000e+00  0.0000000000000000e+00  0.0000000000000000e+00  0.0000000000000000e+00  0.0000000000000000e+00  7.0710678118654746e-01  1.8000000000000000e+02
                         7.0710678118654746e-01  0.0000000000000000e+00  0.0000000000000000e+00  0.0000000000000000e+00  0.0000000000000000e+00  0.0000000000000000e+00  7.0710678118654746e-01  0.0000000000000000e+00
                         0.0000000000000000e+00  0.0000000000000000e+00  7.0710678118654746e-01  1.8000000000000000e+02  7.0710678118654746e-01  0.0000000000000000e+00  0.0000000000000000e+00  0.0000000000000000e+00
2.224000000000000e+00  0.0000000000000000e+00  0.0000000000000000e+00  7.0710678118654746e-01  0.0000000000000000e+00  7.0710678118654746e-01  0.0000000000000000e+00  0.0000000000000000e+00  0.0000000000000000e+00
                         7.0710678118654746e-01  0.0000000000000000e+00  0.0000000000000000e+00  0.0000000000000000e+00  0.0000000000000000e+00  0.0000000000000000e+00  7.0710678118654746e-01  1.8000000000000000e+02
                         7.0710678118654746e-01  0.0000000000000000e+00  0.0000000000000000e+00  0.0000000000000000e+00  0.0000000000000000e+00  0.0000000000000000e+00  7.0710678118654746e-01  0.0000000000000000e+00
                         0.0000000000000000e+00  0.0000000000000000e+00  7.0710678118654746e-01  1.8000000000000000e+02  7.0710678118654746e-01  0.0000000000000000e+00  0.0000000000000000e+00  0.0000000000000000e+00
2.225000000000000e+00  0.0000000000000000e+00  0.0000000000000000e+00  7.0710678118654746e-01  0.0000000000000000e+00  7.0710678118654746e-01  0.0000000000000000e+00  0.0000000000000000e+00  0.0000000000000000e+00
                         7.0710678118654746e-01  0.0000000000000000e+00  0.0000000000000000e+00  0.0000000000000000e+00  0.0000000000000000e+00  0.0000000000000000e+00  7.0710678118654746e-01  1.8000000000000000e+02
                         7.0710678118654746e-01  0.0000000000000000e+00  0.0000000000000000e+00  0.0000000000000000e+00  0.0000000000000000e+00  0.0000000000000000e+00  7.0710678118654746e-01  0.0000000000000000e+00
                         0.0000000000000000e+00  0.0000000000000000e+00  7.0710678118654746e-01  1.8000000000000000e+02  7.0710678118654746e-01  0.0000000000000000e+00  0.0000000000000000e+00  0.0000000000000000e+00
2.226000000000000e+00  0.0000000000000000e+00  0.0000000000000000e+00  7.0710678118654746e-01  0.0000000000000000e+00  7.0710678118654746e-01  0.0000000000000000e+00  0.0000000000000000e+00  0.0000000000000000e+00
                         7.0710678118654746e-01  0.0000000000000000e+00  0.0000000000000000e+00  0.0000000000000000e+00  0.0000000000000000e+00  0.0000000000000000e+00  7.0710678118654746e-01  1.8000000000000000e+02
                         7.0710678118654746e-01  0.0000000000000000e+00  0.0000000000000000e+00  0.0000000000000000e+00  0.0000000000000000e+00  0.0000000000000000e+00  7.0710678118654746e-01  0.0000000000000000e+00
                         0.0000000000000000e+00  0.0000000000000000e+00  7.0710678118654746e-01  1.8000000000000000e+02  7.0710678118654746e-01  0.0000000000000000e+00  0.0000000000000000e+00  0.0000000000000000e+00
2.227000000000000e+00  0.0000000000000000e+00  0.0000000000000000e+00  7.0710678118654746e-01  0.0000000000000000e+00  7.0710678118654746e-01  0.0000000000000000e+00  0.0000000000000000e+00  0.0000000000000000e+00
                         7.0710678118654746e-01  0.0000000000000000e+00  0.0000000000000000e+00  0.0000000000000000e+00  0.0000000000000000e+00  0.0000000000000000e+00  7.0710678118654746e-01  1.8000000000000000e+02
                         7.0710678118654746e-01  0.0000000000000000e+00  0.0000000000000000e+00  0.0000000000000000e+00  0.0000000000000000e+00  0.0000000000000000e+00  7.0710678118654746e-01  0.0000000000000000e+00
                         0.0000000000000000e+00  0.0000000000000000e+00  7.0710678118654746e-01  1.8000000000000000e+02  7.0710678118654746e-01  0.0000000000000000e+00  0.0000000000000000e+00  0.0000000000000000e+00
2.228000000000000e+00  0.0000000000000000e+00  0.0000000000000000e+00  7.0710678118654746e-01  0.0000000000000000e+00  7.0710678118654746e-01  0.0000000000000000e+00  0.0000000000000000e+00  0.0000000000000000e+00
                         7.0710678118654746e-01  0.0000000000000000e+00  0.0000000000000000e+00  0.0000000000000000e+00  0.0000000000000000e+00  0.0000000000000000e+00  7.0710678118654746e-01  1.8000000000000000e+02
                         7.0710678118654746e-01  0.0000000000000000e+00  0.0000000000000000e+00  0.0000000000000000e+00  0.0000000000000000e+00  0.0000000000000000e+00  7.0710678118654746e-01  0.0000000000000000e+00
                         0.0000000000000000e+00  0.0000000000000000e+00  7.0710678118654746e-01  1.8000000000000000e+02  7.0710678118654746e-01  0.0000000000000000e+00  0.0000000000000000e+00  0.0000000000000000e+00
2.229000000000000e+00  0.0000000000000000e+00  0.0000000000000000e+00  7.0710678118654746e-01  0.0000000000000000e+00  7.0710678118654746e-01  0.0000000000000000e+00  0.0000000000000000e+00  0.0000000000000000e+00
                         7.0710678118654746e-01  0.0000000000000000e+00  0.0000000000000000e+00  0.0000000000000000e+00  0.0000000000000000e+00  0.0000000000000000e+00  7.0710678118654746e-01  1.8000000000000000e+02
                         7.0710678118654746e-01  0.0000000000000000e+00  0.0000000000000000e+00  0.0000000000000000e+00  0.0000000000000000e+00  0.0000000000000000e+00  7.0710678118654746e-01  0.0000000000000000e+00
                         0.0000000000000000e+00  0.0000000000000000e+00  7.0710678118654746e-01  1.8000000000000000e+02  7.0710678118654746e-01  0.0000000000000000e+00  0.0000000000000000e+00  0.0000000000000000e+00
2.230000000000000e+00  0.0000000000000000e+00  0.0000000000000000e+00  7.0710678118654746e-01  0.0000000000000000e+00  7.0710678118654746e-01  0.0000000000000000e+00  0.0000000000000000e+00  0.0000000000000000e+00
                         7.0710678118654746e-01  0.0000000000000000e+00  0.0000000000000000e+00  0.0000000000000000e+00  0.0000000000000000e+00  0.0000000000000000e+00  7.0710678118654746e-01  1.8000000000000000e+02
                         7.0710678118654746e-01  0.0000000000000000e+00  0.0000000000000000e+00  0.0000000000000000e+00  0.0000000000000000e+00  0.0000000000000000e+00  7.0710678118654746e-01  0.0000000000000000e+00
                         0.0000000000000000e+00  0.0000000000000000e+00  7.0710678118654746e-01  1.8000000000000000e+02  7.0710678118654746e-01  0.0000000000000000e+00  0.0000000000000000e+00  0.0000000000000000e+00
2.231000000000000e+00  0.0000000000000000e+00  0.0000000000000000e+00  7.0710678118654746e-01  0.0000000000000000e+00  7.0710678118654746e-01  0.0000000000000000e+00  0.0000000000000000e+00  0.0000000000000000e+00
                         7.0710678118654746e-01  0.0000000000000000e+00  0.0000000000000000e+00  0.0000000000000000e+00  0.0000000000000000e+00  0.0000000000000000e+00  7.0710678118654746e-01  1.8000000000000000e+02
                         7.0710678118654746e-01  0.0000000000000000e+00  0.0000000000000000e+00  0.0000000000000000e+00  0.0000000000000000e+00  0.0000000000000000e+00  7.0710678118654746e-01  0.0000000000000000e+00
                         0.0000000000000000e+00  0.0000000000000000e+00  7.0710678118654746e-01  1.8000000000000000e+02  7.0710678118654746e-01  0.0000000000000000e+00  0.0000000000000000e+00  0.0000000000000000e+00
2.232000000000000e+00  0.0000000000000000e+00  0.0000000000000000e+00  7.0710678118654746e-01  0.0000000000000000e+00  7.0710678118654746e-01  0.0000000000000000e+00  0.0000000000000000e+00  0.0000000000000000e+00
                         7.0710678118654746e-01  0.0000000000000000e+00  0.0000000000000000e+00  0.0000000000000000e+00  0.0000000000000000e+00  0.0000000000000000e+00  7.0710678118654746e-01  1.8000000000000000e+02
                         7.0710678118654746e-01  0.0000000000000000e+00  0.0000000000000000e+00  0.0000000000000000e+00  0.0000000000000000e+00  0.0000000000000000e+00  7.0710678118654746e-01  0.0000000000000000e+00
                         0.0000000000000000e+00  0.0000000000000000e+00  7.0710678118654746e-01  1.8000000000000000e+02  7.0710678118654746e-01  0.0000000000000000e+00  0.0000000000000000e+00  0.0000000000000000e+00
2.233000000000000e+00  0.0000000000000000e+00  0.0000000000000000e+00  7.0710678118654746e-01  0.0000000000000000e+00  7.0710678118654746e-01  0.0000000000000000e+00  0.0000000000000000e+00  0.0000000000000000e+00
                         7.0710678118654746e-01  0.0000000000000000e+00  0.0000000000000000e+00  0.0000000000000000e+00  0.0000000000000000e+00  0.0000000000000000e+00  7.0710678118654746e-01  1.8000000000000000e+02
                         7.0710678118654746e-01  0.0000000000000000e+00  0.0000000000000000e+00  0.0000000000000000e+00  0.0000000000000000e+00  0.0000000000000000e+00  7.0710678118654746e-01  0.0000000000000000e+00
                         0.0000000000000000e+00  0.0000000000000000e+00  7.0710678118654746e-01  1.8000000000000000e+02  7.0710678118654746e-01  0.0000000000000000e+00  0.0000000000000000e+00  0.0000000000000000e+00
2.234000000000000e+00  0.0000000000000000e+00  0.0000000000000000e+00  7.0710678118654746e-01  0.0000000000000000e+00  7.0710678118654746e-01  0.0000000000000000e+00  0.0000000000000000e+00  0.0000000000000000e+00
                         7.0710678118654746e-01  0.0000000000000000e+00  0.0000000000000000e+00  0.0000000000000000e+00  0.0000000000000000e+00  0.0000000000000000e+00  7.0710678118654746e-01  1.8000000000000000e+02
                         7.0710678118654746e-01  0.0000000000000000e+00  0.0000000000000000e+00  0.0000000000000000e+00  0.0000000000000000e+00  0.0000000000000000e+00  7.0710678118654746e-01  0.0000000000000000e+00
                         0.0000000000000000e+00  0.0000000000000000e+00  7.0710678118654746e-01  1.8000000000000000e+02  7.0710678118654746e-01  0.0000000000000000e+00  0.0000000000000000e+00  0.0000000000000000e+00
2.235000000000000e+00  0.0000000000000000e+00  0.0000000000000000e+00  7.0710678118654746e-01  0.0000000000000000e+00  7.0710678118654746e-01  0.0000000000000000e+00  0.0000000000000000e+00  0.0000000000000000e+00
                         7.0710678118654746e-01  0.0000000000000000e+00  0.0000000000000000e+00  0.0000000000000000e+00  0.0000000000000000e+00  0.0000000000000000e+00  7.0710678118654746e-01  1.8000000000000000e+02
                         7.0710678118654746e-01  0.0000000000000000e+00  0.0000000000000000e+00  0.0000000000000000e+00  0.0000000000000000e+00  0.0000000000000000e+00  7.0710678118654746e-01  0.0000000000000000e+00
                         0.0000000000000000e+00  0.0000000000000000e+00  7.0710678118654746e-01  1.8000000000000000e+02  7.0710678118654746e-01  0.0000000000000000e+00  0.0000000000000000e+00  0.0000000000000000e+00
2.236000000000000e+00  0.0000000000000000e+00  0.0000000000000000e+00  7.0710678118654746e-01  0.0000000000000000e+00  7.0710678118654746e-01  0.0000000000000000e+00  0.0000000000000000e+00  0.0000000000000000e+00
                         7.0710678118654746e-01  0.0000000000000000e+00  0.0000000000000000e+00  0.0000000000000000e+00  0.0000000000000000e+00  0.0000000000000000e+00  7.0710678118654746e-01  1.8000000000000000e+02
                         7.0710678118654746e-01  0.0000000000000000e+00  0.0000000000000000e+00  0.0000000000000000e+00  0.0000000000000000e+00  0.0000000000000000e+00  7.0710678118654746e-01  0.0000000000000000e+00
                         0.0000000000000000e+00  0.0000000000000000e+00  7.0710678118654746e-01  1.8000000000000000e+02  7.0710678118654746e-01  0.0000000000000000e+00  0.0000000000000000e+00  0.0000000000000000e+00
2.237000000000000e+00  0.0000000000000000e+00  0.0000000000000000e+00  7.0710678118654746e-01  0.0000000000000000e+00  7.0710678118654746e-01  0.0000000000000000e+00  0.0000000000000000e+00  0.0000000000000000e+00
                         7.0710678118654746e-01  0.0000000000000000e+00  0.0000000000000000e+00  0.0000000000000000e+00  0.0000000000000000e+00  0.0000000000000000e+00  7.0710678118654746e-01  1.8000000000000000e+02
                         7.0710678118654746e-01  0.0000000000000000e+00  0.0000000000000000e+00  0.0000000000000000e+00  0.0000000000000000e+00  0.0000000000000000e+00  7.0710678118654746e-01  0.0000000000000000e+00
                         0.0000000000000000e+00  0.0000000000000000e+00  7.0710678118654746e-01  1.8000000000000000e+02  7.0710678118654746e-01  0.0000000000000000e+00  0.0000000000000000e+00  0.0000000000000000e+00
2.238000000000000e+00  0.0000000000000000e+00  0.0000000000000000e+00  7.0710678118654746e-01  0.0000000000000000e+00  7.0710678118654746e-01  0.0000000000000000e+00  0.0000000000000000e+00  0.0000000000000000e+00
                         7.0710678118654746e-01  0.0000000000000000e+00  0.0000000000000000e+00  0.0000000000000000e+00  0.0000000000000000e+00  0.0000000000000000e+00  7.0710678118654746e-01  1.8000000000000000e+02
                         7.0710678118654746e-01  0.0000000000000000e+00  0.0000000000000000e+00  0.0000000000000000e+00  0.0000000000000000e+00  0.0000000000000000e+00  7.0710678118654746e-01  0.0000000000000000e+00
                         0.0000000000000000e+00  0.0000000000000000e+00  7.0710678118654746e-01  1.8000000000000000e+02  7.0710678118654746e-01  0.0000000000000000e+00  0.0000000000000000e+00  0.0000000000000000e+00
2.239000000000000e+00  0.0000000000000000e+00  0.0000000000000000e+00  7.0710678118654746e-01  0.0000000000000000e+00  7.0710678118654746e-01  0.0000000000000000e+00  0.0000000000000000e+00  0.0000000000000000e+00
                         7.0710678118654746e-01  0.0000000000000000e+00  0.0000000000000000e+00  0.0000000000000000e+00  0.0000000000000000e+00  0.0000000000000000e+00  7.0710678118654746e-01  1.8000000000000000e+02
                         7.0710678118654746e-01  0.0000000000000000e+00  0.0000000000000000e+00  0.0000000000000000e+00  0.0000000000000000e+00  0.0000000000000000e+00  7.0710678118654746e-01  0.0000000000000000e+00
                         0.0000000000000000e+00  0.0000000000000000e+00  7.0710678118654746e-01  1.8000000000000000e+02  7.0710678118654746e-01  0.0000000000000000e+00  0.0000000000000000e+00  0.0000000000000000e+00
2.240000000000000e+00  0.0000000000000000e+00  0.0000000000000000e+00  7.0710678118654746e-01  0.0000000000000000e+00  7.0710678118654746e-01  0.0000000000000000e+00  0.0000000000000000e+00  0.0000000000000000e+00
                         7.0710678118654746e-01  0.0000000000000000e+00  0.0000000000000000e+00  0.0000000000000000e+00  0.0000000000000000e+00  0.0000000000000000e+00  7.0710678118654746e-01  1.8000000000000000e+02
                         7.0710678118654746e-01  0.0000000000000000e+00  0.0000000000000000e+00  0.0000000000000000e+00  0.0000000000000000e+00  0.0000000000000000e+00  7.0710678118654746e-01  0.0000000000000000e+00
                         0.0000000000000000e+00  0.0000000000000000e+00  7.0710678118654746e-01  1.8000000000000000e+02  7.0710678118654746e-01  0.0000000000000000e+00  0.0000000000000000e+00  0.0000000000000000e+00
2.241000000000000e+00  0.0000000000000000e+00  0.0000000000000000e+00  7.0710678118654746e-01  0.0000000000000000e+00  7.0710678118654746e-01  0.0000000000000000e+00  0.0000000000000000e+00  0.0000000000000000e+00
                         7.0710678118654746e-01  0.0000000000000000e+00  0.0000000000000000e+00  0.0000000000000000e+00  0.0000000000000000e+00  0.0000000000000000e+00  7.0710678118654746e-01  1.8000000000000000e+02
                         7.0710678118654746e-01  0.0000000000000000e+00  0.0000000000000000e+00  0.0000000000000000e+00  0.0000000000000000e+00  0.0000000000000000e+00  7.0710678118654746e-01  0.0000000000000000e+00
                         0.0000000000000000e+00  0.0000000000000000e+00  7.0710678118654746e-01  1.8000000000000000e+02  7.0710678118654746e-01  0.0000000000000000e+00  0.0000000000000000e+00  0.0000000000000000e+00
2.242000000000000e+00  0.0000000000000000e+00  0.0000000000000000e+00  7.0710678118654746e-01  0.0000000000000000e+00  7.0710678118654746e-01  0.0000000000000000e+00  0.0000000000000000e+00  0.0000000000000000e+00
                         7.0710678118654746e-01  0.0000000000000000e+00  0.0000000000000000e+00  0.0000000000000000e+00  0.0000000000000000e+00  0.0000000000000000e+00  7.0710678118654746e-01  1.8000000000000000e+02
                         7.0710678118654746e-01  0.0000000000000000e+00  0.0000000000000000e+00  0.0000000000000000e+00  0.0000000000000000e+00  0.0000000000000000e+00  7.0710678118654746e-01  0.0000000000000000e+00
                         0.0000000000000000e+00  0.0000000000000000e+00  7.0710678118654746e-01  1.8000000000000000e+02  7.0710678118654746e-01  0.0000000000000000e+00  0.0000000000000000e+00  0.0000000000000000e+00
2.243000000000000e+00  0.0000000000000000e+00  0.0000000000000000e+00  7.0710678118654746e-01  0.0000000000000000e+00  7.0710678118654746e-01  0.0000000000000000e+00  0.0000000000000000e+00  0.0000000000000000e+00
                         7.0710678118654746e-01  0.0000000000000000e+00  0.0000000000000000e+00  0.0000000000000000e+00  0.0000000000000000e+00  0.0000000000000000e+00  7.0710678118654746e-01  1.8000000000000000e+02
                         7.0710678118654746e-01  0.0000000000000000e+00  0.0000000000000000e+00  0.0000000000000000e+00  0.0000000000000000e+00  0.0000000000000000e+00  7.0710678118654746e-01  0.0000000000000000e+00
                         0.0000000000000000e+00  0.0000000000000000e+00  7.0710678118654746e-01  1.8000000000000000e+02  7.0710678118654746e-01  0.0000000000000000e+00  0.0000000000000000e+00  0.0000000000000000e+00
2.244000000000000e+00  0.0000000000000000e+00  0.0000000000000000e+00  7.0710678118654746e-01  0.0000000000000000e+00  7.0710678118654746e-01  0.0000000000000000e+00  0.0000000000000000e+00  0.0000000000000000e+00
                         7.0710678118654746e-01  0.0000000000000000e+00  0.0000000000000000e+00  0.0000000000000000e+00  0.0000000000000000e+00  0.0000000000000000e+00  7.0710678118654746e-01  1.8000000000000000e+02
                         7.0710678118654746e-01  0.0000000000000000e+00  0.0000000000000000e+00  0.0000000000000000e+00  0.0000000000000000e+00  0.0000000000000000e+00  7.0710678118654746e-01  0.0000000000000000e+00
                         0.0000000000000000e+00  0.0000000000000000e+00  7.0710678118654746e-01  1.8000000000000000e+02  7.0710678118654746e-01  0.0000000000000000e+00  0.0000000000000000e+00  0.0000000000000000e+00
2.245000000000000e+00  0.0000000000000000e+00  0.0000000000000000e+00  7.0710678118654746e-01  0.0000000000000000e+00  7.0710678118654746e-01  0.0000000000000000e+00  0.0000000000000000e+00  0.0000000000000000e+00
                         7.0710678118654746e-01  0.0000000000000000e+00  0.0000000000000000e+00  0.0000000000000000e+00  0.0000000000000000e+00  0.0000000000000000e+00  7.0710678118654746e-01  1.8000000000000000e+02
                         7.0710678118654746e-01  0.0000000000000000e+00  0.0000000000000000e+00  0.0000000000000000e+00  0.0000000000000000e+00  0.0000000000000000e+00  7.0710678118654746e-01  0.0000000000000000e+00
                         0.0000000000000000e+00  0.0000000000000000e+00  7.0710678118654746e-01  1.8000000000000000e+02  7.0710678118654746e-01  0.0000000000000000e+00  0.0000000000000000e+00  0.0000000000000000e+00
2.246000000000000e+00  0.0000000000000000e+00  0.0000000000000000e+00  7.0710678118654746e-01  0.0000000000000000e+00  7.0710678118654746e-01  0.0000000000000000e+00  0.0000000000000000e+00  0.0000000000000000e+00
                         7.0710678118654746e-01  0.0000000000000000e+00  0.0000000000000000e+00  0.0000000000000000e+00  0.0000000000000000e+00  0.0000000000000000e+00  7.0710678118654746e-01  1.8000000000000000e+02
                         7.0710678118654746e-01  0.0000000000000000e+00  0.0000000000000000e+00  0.0000000000000000e+00  0.0000000000000000e+00  0.0000000000000000e+00  7.0710678118654746e-01  0.0000000000000000e+00
                         0.0000000000000000e+00  0.0000000000000000e+00  7.0710678118654746e-01  1.8000000000000000e+02  7.0710678118654746e-01  0.0000000000000000e+00  0.0000000000000000e+00  0.0000000000000000e+00
2.247000000000000e+00  0.0000000000000000e+00  0.0000000000000000e+00  7.0710678118654746e-01  0.0000000000000000e+00  7.0710678118654746e-01  0.0000000000000000e+00  0.0000000000000000e+00  0.0000000000000000e+00
                         7.0710678118654746e-01  0.0000000000000000e+00  0.0000000000000000e+00  0.0000000000000000e+00  0.0000000000000000e+00  0.0000000000000000e+00  7.0710678118654746e-01  1.8000000000000000e+02
                         7.0710678118654746e-01  0.0000000000000000e+00  0.0000000000000000e+00  0.0000000000000000e+00  0.0000000000000000e+00  0.0000000000000000e+00  7.0710678118654746e-01  0.0000000000000000e+00
                         0.0000000000000000e+00  0.0000000000000000e+00  7.0710678118654746e-01  1.8000000000000000e+02  7.0710678118654746e-01  0.0000000000000000e+00  0.0000000000000000e+00  0.0000000000000000e+00
2.248000000000000e+00  0.0000000000000000e+00  0.0000000000000000e+00  7.0710678118654746e-01  0.0000000000000000e+00  7.0710678118654746e-01  0.0000000000000000e+00  0.0000000000000000e+00  0.0000000000000000e+00
                         7.0710678118654746e-01  0.0000000000000000e+00  0.0000000000000000e+00  0.0000000000000000e+00  0.0000000000000000e+00  0.0000000000000000e+00  7.0710678118654746e-01  1.8000000000000000e+02
                         7.0710678118654746e-01  0.0000000000000000e+00  0.0000000000000000e+00  0.0000000000000000e+00  0.0000000000000000e+00  0.0000000000000000e+00  7.0710678118654746e-01  0.0000000000000000e+00
                         0.0000000000000000e+00  0.0000000000000000e+00  7.0710678118654746e-01  1.8000000000000000e+02  7.0710678118654746e-01  0.0000000000000000e+00  0.0000000000000000e+00  0.0000000000000000e+00
2.249000000000000e+00  0.0000000000000000e+00  0.0000000000000000e+00  7.0710678118654746e-01  0.0000000000000000e+00  7.0710678118654746e-01  0.0000000000000000e+00  0.0000000000000000e+00  0.0000000000000000e+00
                         7.0710678118654746e-01  0.0000000000000000e+00  0.0000000000000000e+00  0.0000000000000000e+00  0.0000000000000000e+00  0.0000000000000000e+00  7.0710678118654746e-01  1.8000000000000000e+02
                         7.0710678118654746e-01  0.0000000000000000e+00  0.0000000000000000e+00  0.0000000000000000e+00  0.0000000000000000e+00  0.0000000000000000e+00  7.0710678118654746e-01  0.0000000000000000e+00
                         0.0000000000000000e+00  0.0000000000000000e+00  7.0710678118654746e-01  1.8000000000000000e+02  7.0710678118654746e-01  0.0000000000000000e+00  0.0000000000000000e+00  0.0000000000000000e+00
2.250000000000000e+00  0.0000000000000000e+00  0.0000000000000000e+00  7.0710678118654746e-01  0.0000000000000000e+00  7.0710678118654746e-01  0.0000000000000000e+00  0.0000000000000000e+00  0.0000000000000000e+00
                         7.0710678118654746e-01  0.0000000000000000e+00  0.0000000000000000e+00  0.0000000000000000e+00  0.0000000000000000e+00  0.0000000000000000e+00  7.0710678118654746e-01  1.8000000000000000e+02
                         7.0710678118654746e-01  0.0000000000000000e+00  0.0000000000000000e+00  0.0000000000000000e+00  0.0000000000000000e+00  0.0000000000000000e+00  7.0710678118654746e-01  0.0000000000000000e+00
                         0.0000000000000000e+00  0.0000000000000000e+00  7.0710678118654746e-01  1.8000000000000000e+02  7.0710678118654746e-01  0.0000000000000000e+00  0.0000000000000000e+00  0.0000000000000000e+00
2.251000000000000e+00  0.0000000000000000e+00  0.0000000000000000e+00  7.0710678118654746e-01  0.0000000000000000e+00  7.0710678118654746e-01  0.0000000000000000e+00  0.0000000000000000e+00  0.0000000000000000e+00
                         7.0710678118654746e-01  0.0000000000000000e+00  0.0000000000000000e+00  0.0000000000000000e+00  0.0000000000000000e+00  0.0000000000000000e+00  7.0710678118654746e-01  1.8000000000000000e+02
                         7.0710678118654746e-01  0.0000000000000000e+00  0.0000000000000000e+00  0.0000000000000000e+00  0.0000000000000000e+00  0.0000000000000000e+00  7.0710678118654746e-01  0.0000000000000000e+00
                         0.0000000000000000e+00  0.0000000000000000e+00  7.0710678118654746e-01  1.8000000000000000e+02  7.0710678118654746e-01  0.0000000000000000e+00  0.0000000000000000e+00  0.0000000000000000e+00
2.252000000000000e+00  0.0000000000000000e+00  0.0000000000000000e+00  7.0710678118654746e-01  0.0000000000000000e+00  7.0710678118654746e-01  0.0000000000000000e+00  0.0000000000000000e+00  0.0000000000000000e+00
                         7.0710678118654746e-01  0.0000000000000000e+00  0.0000000000000000e+00  0.0000000000000000e+00  0.0000000000000000e+00  0.0000000000000000e+00  7.0710678118654746e-01  1.8000000000000000e+02
                         7.0710678118654746e-01  0.0000000000000000e+00  0.0000000000000000e+00  0.0000000000000000e+00  0.0000000000000000e+00  0.0000000000000000e+00  7.0710678118654746e-01  0.0000000000000000e+00
                         0.0000000000000000e+00  0.0000000000000000e+00  7.0710678118654746e-01  1.8000000000000000e+02  7.0710678118654746e-01  0.0000000000000000e+00  0.0000000000000000e+00  0.0000000000000000e+00
2.253000000000000e+00  0.0000000000000000e+00  0.0000000000000000e+00  7.0710678118654746e-01  0.0000000000000000e+00  7.0710678118654746e-01  0.0000000000000000e+00  0.0000000000000000e+00  0.0000000000000000e+00
                         7.0710678118654746e-01  0.0000000000000000e+00  0.0000000000000000e+00  0.0000000000000000e+00  0.0000000000000000e+00  0.0000000000000000e+00  7.0710678118654746e-01  1.8000000000000000e+02
                         7.0710678118654746e-01  0.0000000000000000e+00  0.0000000000000000e+00  0.0000000000000000e+00  0.0000000000000000e+00  0.0000000000000000e+00  7.0710678118654746e-01  0.0000000000000000e+00
                         0.0000000000000000e+00  0.0000000000000000e+00  7.0710678118654746e-01  1.8000000000000000e+02  7.0710678118654746e-01  0.0000000000000000e+00  0.0000000000000000e+00  0.0000000000000000e+00
2.254000000000000e+00  0.0000000000000000e+00  0.0000000000000000e+00  7.0710678118654746e-01  0.0000000000000000e+00  7.0710678118654746e-01  0.0000000000000000e+00  0.0000000000000000e+00  0.0000000000000000e+00
                         7.0710678118654746e-01  0.0000000000000000e+00  0.0000000000000000e+00  0.0000000000000000e+00  0.0000000000000000e+00  0.0000000000000000e+00  7.0710678118654746e-01  1.8000000000000000e+02
                         7.0710678118654746e-01  0.0000000000000000e+00  0.0000000000000000e+00  0.0000000000000000e+00  0.0000000000000000e+00  0.0000000000000000e+00  7.0710678118654746e-01  0.0000000000000000e+00
                         0.0000000000000000e+00  0.0000000000000000e+00  7.0710678118654746e-01  1.8000000000000000e+02  7.0710678118654746e-01  0.0000000000000000e+00  0.0000000000000000e+00  0.0000000000000000e+00
2.255000000000000e+00  0.0000000000000000e+00  0.0000000000000000e+00  7.0710678118654746e-01  0.0000000000000000e+00  7.0710678118654746e-01  0.0000000000000000e+00  0.0000000000000000e+00  0.0000000000000000e+00
                         7.0710678118654746e-01  0.0000000000000000e+00  0.0000000000000000e+00  0.0000000000000000e+00  0.0000000000000000e+00  0.0000000000000000e+00  7.0710678118654746e-01  1.8000000000000000e+02
                         7.0710678118654746e-01  0.0000000000000000e+00  0.0000000000000000e+00  0.0000000000000000e+00  0.0000000000000000e+00  0.0000000000000000e+00  7.0710678118654746e-01  0.0000000000000000e+00
                         0.0000000000000000e+00  0.0000000000000000e+00  7.0710678118654746e-01  1.8000000000000000e+02  7.0710678118654746e-01  0.0000000000000000e+00  0.0000000000000000e+00  0.0000000000000000e+00
2.256000000000000e+00  0.0000000000000000e+00  0.0000000000000000e+00  7.0710678118654746e-01  0.0000000000000000e+00  7.0710678118654746e-01  0.0000000000000000e+00  0.0000000000000000e+00  0.0000000000000000e+00
                         7.0710678118654746e-01  0.0000000000000000e+00  0.0000000000000000e+00  0.0000000000000000e+00  0.0000000000000000e+00  0.0000000000000000e+00  7.0710678118654746e-01  1.8000000000000000e+02
                         7.0710678118654746e-01  0.0000000000000000e+00  0.0000000000000000e+00  0.0000000000000000e+00  0.0000000000000000e+00  0.0000000000000000e+00  7.0710678118654746e-01  0.0000000000000000e+00
                         0.0000000000000000e+00  0.0000000000000000e+00  7.0710678118654746e-01  1.8000000000000000e+02  7.0710678118654746e-01  0.0000000000000000e+00  0.0000000000000000e+00  0.0000000000000000e+00
2.257000000000000e+00  0.0000000000000000e+00  0.0000000000000000e+00  7.0710678118654746e-01  0.0000000000000000e+00  7.0710678118654746e-01  0.0000000000000000e+00  0.0000000000000000e+00  0.0000000000000000e+00
                         7.0710678118654746e-01  0.0000000000000000e+00  0.0000000000000000e+00  0.0000000000000000e+00  0.0000000000000000e+00  0.0000000000000000e+00  7.0710678118654746e-01  1.8000000000000000e+02
                         7.0710678118654746e-01  0.0000000000000000e+00  0.0000000000000000e+00  0.0000000000000000e+00  0.0000000000000000e+00  0.0000000000000000e+00  7.0710678118654746e-01  0.0000000000000000e+00
                         0.0000000000000000e+00  0.0000000000000000e+00  7.0710678118654746e-01  1.8000000000000000e+02  7.0710678118654746e-01  0.0000000000000000e+00  0.0000000000000000e+00  0.0000000000000000e+00
2.258000000000000e+00  0.0000000000000000e+00  0.0000000000000000e+00  7.0710678118654746e-01  0.0000000000000000e+00  7.0710678118654746e-01  0.0000000000000000e+00  0.0000000000000000e+00  0.0000000000000000e+00
                         7.0710678118654746e-01  0.0000000000000000e+00  0.0000000000000000e+00  0.0000000000000000e+00  0.0000000000000000e+00  0.0000000000000000e+00  7.0710678118654746e-01  1.8000000000000000e+02
                         7.0710678118654746e-01  0.0000000000000000e+00  0.0000000000000000e+00  0.0000000000000000e+00  0.0000000000000000e+00  0.0000000000000000e+00  7.0710678118654746e-01  0.0000000000000000e+00
                         0.0000000000000000e+00  0.0000000000000000e+00  7.0710678118654746e-01  1.8000000000000000e+02  7.0710678118654746e-01  0.0000000000000000e+00  0.0000000000000000e+00  0.0000000000000000e+00
2.259000000000000e+00  0.0000000000000000e+00  0.0000000000000000e+00  7.0710678118654746e-01  0.0000000000000000e+00  7.0710678118654746e-01  0.0000000000000000e+00  0.0000000000000000e+00  0.0000000000000000e+00
                         7.0710678118654746e-01  0.0000000000000000e+00  0.0000000000000000e+00  0.0000000000000000e+00  0.0000000000000000e+00  0.0000000000000000e+00  7.0710678118654746e-01  1.8000000000000000e+02
                         7.0710678118654746e-01  0.0000000000000000e+00  0.0000000000000000e+00  0.0000000000000000e+00  0.0000000000000000e+00  0.0000000000000000e+00  7.0710678118654746e-01  0.0000000000000000e+00
                         0.0000000000000000e+00  0.0000000000000000e+00  7.0710678118654746e-01  1.8000000000000000e+02  7.0710678118654746e-01  0.0000000000000000e+00  0.0000000000000000e+00  0.0000000000000000e+00
2.260000000000000e+00  0.0000000000000000e+00  0.0000000000000000e+00  7.0710678118654746e-01  0.0000000000000000e+00  7.0710678118654746e-01  0.0000000000000000e+00  0.0000000000000000e+00  0.0000000000000000e+00
                         7.0710678118654746e-01  0.0000000000000000e+00  0.0000000000000000e+00  0.0000000000000000e+00  0.0000000000000000e+00  0.0000000000000000e+00  7.0710678118654746e-01  1.8000000000000000e+02
                         7.0710678118654746e-01  0.0000000000000000e+00  0.0000000000000000e+00  0.0000000000000000e+00  0.0000000000000000e+00  0.0000000000000000e+00  7.0710678118654746e-01  0.0000000000000000e+00
                         0.0000000000000000e+00  0.0000000000000000e+00  7.0710678118654746e-01  1.8000000000000000e+02  7.0710678118654746e-01  0.0000000000000000e+00  0.0000000000000000e+00  0.0000000000000000e+00
2.261000000000000e+00  0.0000000000000000e+00  0.0000000000000000e+00  7.0710678118654746e-01  0.0000000000000000e+00  7.0710678118654746e-01  0.0000000000000000e+00  0.0000000000000000e+00  0.0000000000000000e+00
                         7.0710678118654746e-01  0.0000000000000000e+00  0.0000000000000000e+00  0.0000000000000000e+00  0.0000000000000000e+00  0.0000000000000000e+00  7.0710678118654746e-01  1.8000000000000000e+02
                         7.0710678118654746e-01  0.0000000000000000e+00  0.0000000000000000e+00  0.0000000000000000e+00  0.0000000000000000e+00  0.0000000000000000e+00  7.0710678118654746e-01  0.0000000000000000e+00
                         0.0000000000000000e+00  0.0000000000000000e+00  7.0710678118654746e-01  1.8000000000000000e+02  7.0710678118654746e-01  0.0000000000000000e+00  0.0000000000000000e+00  0.0000000000000000e+00
2.262000000000000e+00  0.0000000000000000e+00  0.0000000000000000e+00  7.0710678118654746e-01  0.0000000000000000e+00  7.0710678118654746e-01  0.0000000000000000e+00  0.0000000000000000e+00  0.0000000000000000e+00
                         7.0710678118654746e-01  0.0000000000000000e+00  0.0000000000000000e+00  0.0000000000000000e+00  0.0000000000000000e+00  0.0000000000000000e+00  7.0710678118654746e-01  1.8000000000000000e+02
                         7.0710678118654746e-01  0.0000000000000000e+00  0.0000000000000000e+00  0.0000000000000000e+00  0.0000000000000000e+00  0.0000000000000000e+00  7.0710678118654746e-01  0.0000000000000000e+00
                         0.0000000000000000e+00  0.0000000000000000e+00  7.0710678118654746e-01  1.8000000000000000e+02  7.0710678118654746e-01  0.0000000000000000e+00  0.0000000000000000e+00  0.0000000000000000e+00
2.263000000000000e+00  0.0000000000000000e+00  0.0000000000000000e+00  7.0710678118654746e-01  0.0000000000000000e+00  7.0710678118654746e-01  0.0000000000000000e+00  0.0000000000000000e+00  0.0000000000000000e+00
                         7.0710678118654746e-01  0.0000000000000000e+00  0.0000000000000000e+00  0.0000000000000000e+00  0.0000000000000000e+00  0.0000000000000000e+00  7.0710678118654746e-01  1.8000000000000000e+02
                         7.0710678118654746e-01  0.0000000000000000e+00  0.0000000000000000e+00  0.0000000000000000e+00  0.0000000000000000e+00  0.0000000000000000e+00  7.0710678118654746e-01  0.0000000000000000e+00
                         0.0000000000000000e+00  0.0000000000000000e+00  7.0710678118654746e-01  1.8000000000000000e+02  7.0710678118654746e-01  0.0000000000000000e+00  0.0000000000000000e+00  0.0000000000000000e+00
2.264000000000000e+00  0.0000000000000000e+00  0.0000000000000000e+00  7.0710678118654746e-01  0.0000000000000000e+00  7.0710678118654746e-01  0.0000000000000000e+00  0.0000000000000000e+00  0.0000000000000000e+00
                         7.0710678118654746e-01  0.0000000000000000e+00  0.0000000000000000e+00  0.0000000000000000e+00  0.0000000000000000e+00  0.0000000000000000e+00  7.0710678118654746e-01  1.8000000000000000e+02
                         7.0710678118654746e-01  0.0000000000000000e+00  0.0000000000000000e+00  0.0000000000000000e+00  0.0000000000000000e+00  0.0000000000000000e+00  7.0710678118654746e-01  0.0000000000000000e+00
                         0.0000000000000000e+00  0.0000000000000000e+00  7.0710678118654746e-01  1.8000000000000000e+02  7.0710678118654746e-01  0.0000000000000000e+00  0.0000000000000000e+00  0.0000000000000000e+00
2.265000000000000e+00  0.0000000000000000e+00  0.0000000000000000e+00  7.0710678118654746e-01  0.0000000000000000e+00  7.0710678118654746e-01  0.0000000000000000e+00  0.0000000000000000e+00  0.0000000000000000e+00
                         7.0710678118654746e-01  0.0000000000000000e+00  0.0000000000000000e+00  0.0000000000000000e+00  0.0000000000000000e+00  0.0000000000000000e+00  7.0710678118654746e-01  1.8000000000000000e+02
                         7.0710678118654746e-01  0.0000000000000000e+00  0.0000000000000000e+00  0.0000000000000000e+00  0.0000000000000000e+00  0.0000000000000000e+00  7.0710678118654746e-01  0.0000000000000000e+00
                         0.0000000000000000e+00  0.0000000000000000e+00  7.0710678118654746e-01  1.8000000000000000e+02  7.0710678118654746e-01  0.0000000000000000e+00  0.0000000000000000e+00  0.0000000000000000e+00
2.266000000000000e+00  0.0000000000000000e+00  0.0000000000000000e+00  7.0710678118654746e-01  0.0000000000000000e+00  7.0710678118654746e-01  0.0000000000000000e+00  0.0000000000000000e+00  0.0000000000000000e+00
                         7.0710678118654746e-01  0.0000000000000000e+00  0.0000000000000000e+00  0.0000000000000000e+00  0.0000000000000000e+00  0.0000000000000000e+00  7.0710678118654746e-01  1.8000000000000000e+02
                         7.0710678118654746e-01  0.0000000000000000e+00  0.0000000000000000e+00  0.0000000000000000e+00  0.0000000000000000e+00  0.0000000000000000e+00  7.0710678118654746e-01  0.0000000000000000e+00
                         0.0000000000000000e+00  0.0000000000000000e+00  7.0710678118654746e-01  1.8000000000000000e+02  7.0710678118654746e-01  0.0000000000000000e+00  0.0000000000000000e+00  0.0000000000000000e+00
2.267000000000000e+00  0.0000000000000000e+00  0.0000000000000000e+00  7.0710678118654746e-01  0.0000000000000000e+00  7.0710678118654746e-01  0.0000000000000000e+00  0.0000000000000000e+00  0.0000000000000000e+00
                         7.0710678118654746e-01  0.0000000000000000e+00  0.0000000000000000e+00  0.0000000000000000e+00  0.0000000000000000e+00  0.0000000000000000e+00  7.0710678118654746e-01  1.8000000000000000e+02
                         7.0710678118654746e-01  0.0000000000000000e+00  0.0000000000000000e+00  0.0000000000000000e+00  0.0000000000000000e+00  0.0000000000000000e+00  7.0710678118654746e-01  0.0000000000000000e+00
                         0.0000000000000000e+00  0.0000000000000000e+00  7.0710678118654746e-01  1.8000000000000000e+02  7.0710678118654746e-01  0.0000000000000000e+00  0.0000000000000000e+00  0.0000000000000000e+00
2.268000000000000e+00  0.0000000000000000e+00  0.0000000000000000e+00  7.0710678118654746e-01  0.0000000000000000e+00  7.0710678118654746e-01  0.0000000000000000e+00  0.0000000000000000e+00  0.0000000000000000e+00
                         7.0710678118654746e-01  0.0000000000000000e+00  0.0000000000000000e+00  0.0000000000000000e+00  0.0000000000000000e+00  0.0000000000000000e+00  7.0710678118654746e-01  1.8000000000000000e+02
                         7.0710678118654746e-01  0.0000000000000000e+00  0.0000000000000000e+00  0.0000000000000000e+00  0.0000000000000000e+00  0.0000000000000000e+00  7.0710678118654746e-01  0.0000000000000000e+00
                         0.0000000000000000e+00  0.0000000000000000e+00  7.0710678118654746e-01  1.8000000000000000e+02  7.0710678118654746e-01  0.0000000000000000e+00  0.0000000000000000e+00  0.0000000000000000e+00
2.269000000000000e+00  0.0000000000000000e+00  0.0000000000000000e+00  7.0710678118654746e-01  0.0000000000000000e+00  7.0710678118654746e-01  0.0000000000000000e+00  0.0000000000000000e+00  0.0000000000000000e+00
                         7.0710678118654746e-01  0.0000000000000000e+00  0.0000000000000000e+00  0.0000000000000000e+00  0.0000000000000000e+00  0.0000000000000000e+00  7.0710678118654746e-01  1.8000000000000000e+02
                         7.0710678118654746e-01  0.0000000000000000e+00  0.0000000000000000e+00  0.0000000000000000e+00  0.0000000000000000e+00  0.0000000000000000e+00  7.0710678118654746e-01  0.0000000000000000e+00
                         0.0000000000000000e+00  0.0000000000000000e+00  7.0710678118654746e-01  1.8000000000000000e+02  7.0710678118654746e-01  0.0000000000000000e+00  0.0000000000000000e+00  0.0000000000000000e+00
2.270000000000000e+00  0.0000000000000000e+00  0.0000000000000000e+00  7.0710678118654746e-01  0.0000000000000000e+00  7.0710678118654746e-01  0.0000000000000000e+00  0.0000000000000000e+00  0.0000000000000000e+00
                         7.0710678118654746e-01  0.0000000000000000e+00  0.0000000000000000e+00  0.0000000000000000e+00  0.0000000000000000e+00  0.0000000000000000e+00  7.0710678118654746e-01  1.8000000000000000e+02
                         7.0710678118654746e-01  0.0000000000000000e+00  0.0000000000000000e+00  0.0000000000000000e+00  0.0000000000000000e+00  0.0000000000000000e+00  7.0710678118654746e-01  0.0000000000000000e+00
                         0.0000000000000000e+00  0.0000000000000000e+00  7.0710678118654746e-01  1.8000000000000000e+02  7.0710678118654746e-01  0.0000000000000000e+00  0.0000000000000000e+00  0.0000000000000000e+00
2.271000000000000e+00  0.0000000000000000e+00  0.0000000000000000e+00  7.0710678118654746e-01  0.0000000000000000e+00  7.0710678118654746e-01  0.0000000000000000e+00  0.0000000000000000e+00  0.0000000000000000e+00
                         7.0710678118654746e-01  0.0000000000000000e+00  0.0000000000000000e+00  0.0000000000000000e+00  0.0000000000000000e+00  0.0000000000000000e+00  7.0710678118654746e-01  1.8000000000000000e+02
                         7.0710678118654746e-01  0.0000000000000000e+00  0.0000000000000000e+00  0.0000000000000000e+00  0.0000000000000000e+00  0.0000000000000000e+00  7.0710678118654746e-01  0.0000000000000000e+00
                         0.0000000000000000e+00  0.0000000000000000e+00  7.0710678118654746e-01  1.8000000000000000e+02  7.0710678118654746e-01  0.0000000000000000e+00  0.0000000000000000e+00  0.0000000000000000e+00
2.272000000000000e+00  0.0000000000000000e+00  0.0000000000000000e+00  7.0710678118654746e-01  0.0000000000000000e+00  7.0710678118654746e-01  0.0000000000000000e+00  0.0000000000000000e+00  0.0000000000000000e+00
                         7.0710678118654746e-01  0.0000000000000000e+00  0.0000000000000000e+00  0.0000000000000000e+00  0.0000000000000000e+00  0.0000000000000000e+00  7.0710678118654746e-01  1.8000000000000000e+02
                         7.0710678118654746e-01  0.0000000000000000e+00  0.0000000000000000e+00  0.0000000000000000e+00  0.0000000000000000e+00  0.0000000000000000e+00  7.0710678118654746e-01  0.0000000000000000e+00
                         0.0000000000000000e+00  0.0000000000000000e+00  7.0710678118654746e-01  1.8000000000000000e+02  7.0710678118654746e-01  0.0000000000000000e+00  0.0000000000000000e+00  0.0000000000000000e+00
2.273000000000000e+00  0.0000000000000000e+00  0.0000000000000000e+00  7.0710678118654746e-01  0.0000000000000000e+00  7.0710678118654746e-01  0.0000000000000000e+00  0.0000000000000000e+00  0.0000000000000000e+00
                         7.0710678118654746e-01  0.0000000000000000e+00  0.0000000000000000e+00  0.0000000000000000e+00  0.0000000000000000e+00  0.0000000000000000e+00  7.0710678118654746e-01  1.8000000000000000e+02
                         7.0710678118654746e-01  0.0000000000000000e+00  0.0000000000000000e+00  0.0000000000000000e+00  0.0000000000000000e+00  0.0000000000000000e+00  7.0710678118654746e-01  0.0000000000000000e+00
                         0.0000000000000000e+00  0.0000000000000000e+00  7.0710678118654746e-01  1.8000000000000000e+02  7.0710678118654746e-01  0.0000000000000000e+00  0.0000000000000000e+00  0.0000000000000000e+00
2.274000000000000e+00  0.0000000000000000e+00  0.0000000000000000e+00  7.0710678118654746e-01  0.0000000000000000e+00  7.0710678118654746e-01  0.0000000000000000e+00  0.0000000000000000e+00  0.0000000000000000e+00
                         7.0710678118654746e-01  0.0000000000000000e+00  0.0000000000000000e+00  0.0000000000000000e+00  0.0000000000000000e+00  0.0000000000000000e+00  7.0710678118654746e-01  1.8000000000000000e+02
                         7.0710678118654746e-01  0.0000000000000000e+00  0.0000000000000000e+00  0.0000000000000000e+00  0.0000000000000000e+00  0.0000000000000000e+00  7.0710678118654746e-01  0.0000000000000000e+00
                         0.0000000000000000e+00  0.0000000000000000e+00  7.0710678118654746e-01  1.8000000000000000e+02  7.0710678118654746e-01  0.0000000000000000e+00  0.0000000000000000e+00  0.0000000000000000e+00
2.275000000000000e+00  0.0000000000000000e+00  0.0000000000000000e+00  7.0710678118654746e-01  0.0000000000000000e+00  7.0710678118654746e-01  0.0000000000000000e+00  0.0000000000000000e+00  0.0000000000000000e+00
                         7.0710678118654746e-01  0.0000000000000000e+00  0.0000000000000000e+00  0.0000000000000000e+00  0.0000000000000000e+00  0.0000000000000000e+00  7.0710678118654746e-01  1.8000000000000000e+02
                         7.0710678118654746e-01  0.0000000000000000e+00  0.0000000000000000e+00  0.0000000000000000e+00  0.0000000000000000e+00  0.0000000000000000e+00  7.0710678118654746e-01  0.0000000000000000e+00
                         0.0000000000000000e+00  0.0000000000000000e+00  7.0710678118654746e-01  1.8000000000000000e+02  7.0710678118654746e-01  0.0000000000000000e+00  0.0000000000000000e+00  0.0000000000000000e+00
2.276000000000000e+00  0.0000000000000000e+00  0.0000000000000000e+00  7.0710678118654746e-01  0.0000000000000000e+00  7.0710678118654746e-01  0.0000000000000000e+00  0.0000000000000000e+00  0.0000000000000000e+00
                         7.0710678118654746e-01  0.0000000000000000e+00  0.0000000000000000e+00  0.0000000000000000e+00  0.0000000000000000e+00  0.0000000000000000e+00  7.0710678118654746e-01  1.8000000000000000e+02
                         7.0710678118654746e-01  0.0000000000000000e+00  0.0000000000000000e+00  0.0000000000000000e+00  0.0000000000000000e+00  0.0000000000000000e+00  7.0710678118654746e-01  0.0000000000000000e+00
                         0.0000000000000000e+00  0.0000000000000000e+00  7.0710678118654746e-01  1.8000000000000000e+02  7.0710678118654746e-01  0.0000000000000000e+00  0.0000000000000000e+00  0.0000000000000000e+00
2.277000000000000e+00  0.0000000000000000e+00  0.0000000000000000e+00  7.0710678118654746e-01  0.0000000000000000e+00  7.0710678118654746e-01  0.0000000000000000e+00  0.0000000000000000e+00  0.0000000000000000e+00
                         7.0710678118654746e-01  0.0000000000000000e+00  0.0000000000000000e+00  0.0000000000000000e+00  0.0000000000000000e+00  0.0000000000000000e+00  7.0710678118654746e-01  1.8000000000000000e+02
                         7.0710678118654746e-01  0.0000000000000000e+00  0.0000000000000000e+00  0.0000000000000000e+00  0.0000000000000000e+00  0.0000000000000000e+00  7.0710678118654746e-01  0.0000000000000000e+00
                         0.0000000000000000e+00  0.0000000000000000e+00  7.0710678118654746e-01  1.8000000000000000e+02  7.0710678118654746e-01  0.0000000000000000e+00  0.0000000000000000e+00  0.0000000000000000e+00
2.278000000000000e+00  0.0000000000000000e+00  0.0000000000000000e+00  7.0710678118654746e-01  0.0000000000000000e+00  7.0710678118654746e-01  0.0000000000000000e+00  0.0000000000000000e+00  0.0000000000000000e+00
                         7.0710678118654746e-01  0.0000000000000000e+00  0.0000000000000000e+00  0.0000000000000000e+00  0.0000000000000000e+00  0.0000000000000000e+00  7.0710678118654746e-01  1.8000000000000000e+02
                         7.0710678118654746e-01  0.0000000000000000e+00  0.0000000000000000e+00  0.0000000000000000e+00  0.0000000000000000e+00  0.0000000000000000e+00  7.0710678118654746e-01  0.0000000000000000e+00
                         0.0000000000000000e+00  0.0000000000000000e+00  7.0710678118654746e-01  1.8000000000000000e+02  7.0710678118654746e-01  0.0000000000000000e+00  0.0000000000000000e+00  0.0000000000000000e+00
2.279000000000000e+00  0.0000000000000000e+00  0.0000000000000000e+00  7.0710678118654746e-01  0.0000000000000000e+00  7.0710678118654746e-01  0.0000000000000000e+00  0.0000000000000000e+00  0.0000000000000000e+00
                         7.0710678118654746e-01  0.0000000000000000e+00  0.0000000000000000e+00  0.0000000000000000e+00  0.0000000000000000e+00  0.0000000000000000e+00  7.0710678118654746e-01  1.8000000000000000e+02
                         7.0710678118654746e-01  0.0000000000000000e+00  0.0000000000000000e+00  0.0000000000000000e+00  0.0000000000000000e+00  0.0000000000000000e+00  7.0710678118654746e-01  0.0000000000000000e+00
                         0.0000000000000000e+00  0.0000000000000000e+00  7.0710678118654746e-01  1.8000000000000000e+02  7.0710678118654746e-01  0.0000000000000000e+00  0.0000000000000000e+00  0.0000000000000000e+00
2.280000000000000e+00  0.0000000000000000e+00  0.0000000000000000e+00  7.0710678118654746e-01  0.0000000000000000e+00  7.0710678118654746e-01  0.0000000000000000e+00  0.0000000000000000e+00  0.0000000000000000e+00
                         7.0710678118654746e-01  0.0000000000000000e+00  0.0000000000000000e+00  0.0000000000000000e+00  0.0000000000000000e+00  0.0000000000000000e+00  7.0710678118654746e-01  1.8000000000000000e+02
                         7.0710678118654746e-01  0.0000000000000000e+00  0.0000000000000000e+00  0.0000000000000000e+00  0.0000000000000000e+00  0.0000000000000000e+00  7.0710678118654746e-01  0.0000000000000000e+00
                         0.0000000000000000e+00  0.0000000000000000e+00  7.0710678118654746e-01  1.8000000000000000e+02  7.0710678118654746e-01  0.0000000000000000e+00  0.0000000000000000e+00  0.0000000000000000e+00
2.281000000000000e+00  0.0000000000000000e+00  0.0000000000000000e+00  7.0710678118654746e-01  0.0000000000000000e+00  7.0710678118654746e-01  0.0000000000000000e+00  0.0000000000000000e+00  0.0000000000000000e+00
                         7.0710678118654746e-01  0.0000000000000000e+00  0.0000000000000000e+00  0.0000000000000000e+00  0.0000000000000000e+00  0.0000000000000000e+00  7.0710678118654746e-01  1.8000000000000000e+02
                         7.0710678118654746e-01  0.0000000000000000e+00  0.0000000000000000e+00  0.0000000000000000e+00  0.0000000000000000e+00  0.0000000000000000e+00  7.0710678118654746e-01  0.0000000000000000e+00
                         0.0000000000000000e+00  0.0000000000000000e+00  7.0710678118654746e-01  1.8000000000000000e+02  7.0710678118654746e-01  0.0000000000000000e+00  0.0000000000000000e+00  0.0000000000000000e+00
2.282000000000000e+00  0.0000000000000000e+00  0.0000000000000000e+00  7.0710678118654746e-01  0.0000000000000000e+00  7.0710678118654746e-01  0.0000000000000000e+00  0.0000000000000000e+00  0.0000000000000000e+00
                         7.0710678118654746e-01  0.0000000000000000e+00  0.0000000000000000e+00  0.0000000000000000e+00  0.0000000000000000e+00  0.0000000000000000e+00  7.0710678118654746e-01  1.8000000000000000e+02
                         7.0710678118654746e-01  0.0000000000000000e+00  0.0000000000000000e+00  0.0000000000000000e+00  0.0000000000000000e+00  0.0000000000000000e+00  7.0710678118654746e-01  0.0000000000000000e+00
                         0.0000000000000000e+00  0.0000000000000000e+00  7.0710678118654746e-01  1.8000000000000000e+02  7.0710678118654746e-01  0.0000000000000000e+00  0.0000000000000000e+00  0.0000000000000000e+00
2.283000000000000e+00  0.0000000000000000e+00  0.0000000000000000e+00  7.0710678118654746e-01  0.0000000000000000e+00  7.0710678118654746e-01  0.0000000000000000e+00  0.0000000000000000e+00  0.0000000000000000e+00
                         7.0710678118654746e-01  0.0000000000000000e+00  0.0000000000000000e+00  0.0000000000000000e+00  0.0000000000000000e+00  0.0000000000000000e+00  7.0710678118654746e-01  1.8000000000000000e+02
                         7.0710678118654746e-01  0.0000000000000000e+00  0.0000000000000000e+00  0.0000000000000000e+00  0.0000000000000000e+00  0.0000000000000000e+00  7.0710678118654746e-01  0.0000000000000000e+00
                         0.0000000000000000e+00  0.0000000000000000e+00  7.0710678118654746e-01  1.8000000000000000e+02  7.0710678118654746e-01  0.0000000000000000e+00  0.0000000000000000e+00  0.0000000000000000e+00
2.284000000000000e+00  0.0000000000000000e+00  0.0000000000000000e+00  7.0710678118654746e-01  0.0000000000000000e+00  7.0710678118654746e-01  0.0000000000000000e+00  0.0000000000000000e+00  0.0000000000000000e+00
                         7.0710678118654746e-01  0.0000000000000000e+00  0.0000000000000000e+00  0.0000000000000000e+00  0.0000000000000000e+00  0.0000000000000000e+00  7.0710678118654746e-01  1.8000000000000000e+02
                         7.0710678118654746e-01  0.0000000000000000e+00  0.0000000000000000e+00  0.0000000000000000e+00  0.0000000000000000e+00  0.0000000000000000e+00  7.0710678118654746e-01  0.0000000000000000e+00
                         0.0000000000000000e+00  0.0000000000000000e+00  7.0710678118654746e-01  1.8000000000000000e+02  7.0710678118654746e-01  0.0000000000000000e+00  0.0000000000000000e+00  0.0000000000000000e+00
2.285000000000000e+00  0.0000000000000000e+00  0.0000000000000000e+00  7.0710678118654746e-01  0.0000000000000000e+00  7.0710678118654746e-01  0.0000000000000000e+00  0.0000000000000000e+00  0.0000000000000000e+00
                         7.0710678118654746e-01  0.0000000000000000e+00  0.0000000000000000e+00  0.0000000000000000e+00  0.0000000000000000e+00  0.0000000000000000e+00  7.0710678118654746e-01  1.8000000000000000e+02
                         7.0710678118654746e-01  0.0000000000000000e+00  0.0000000000000000e+00  0.0000000000000000e+00  0.0000000000000000e+00  0.0000000000000000e+00  7.0710678118654746e-01  0.0000000000000000e+00
                         0.0000000000000000e+00  0.0000000000000000e+00  7.0710678118654746e-01  1.8000000000000000e+02  7.0710678118654746e-01  0.0000000000000000e+00  0.0000000000000000e+00  0.0000000000000000e+00
2.286000000000000e+00  0.0000000000000000e+00  0.0000000000000000e+00  7.0710678118654746e-01  0.0000000000000000e+00  7.0710678118654746e-01  0.0000000000000000e+00  0.0000000000000000e+00  0.0000000000000000e+00
                         7.0710678118654746e-01  0.0000000000000000e+00  0.0000000000000000e+00  0.0000000000000000e+00  0.0000000000000000e+00  0.0000000000000000e+00  7.0710678118654746e-01  1.8000000000000000e+02
                         7.0710678118654746e-01  0.0000000000000000e+00  0.0000000000000000e+00  0.0000000000000000e+00  0.0000000000000000e+00  0.0000000000000000e+00  7.0710678118654746e-01  0.0000000000000000e+00
                         0.0000000000000000e+00  0.0000000000000000e+00  7.0710678118654746e-01  1.8000000000000000e+02  7.0710678118654746e-01  0.0000000000000000e+00  0.0000000000000000e+00  0.0000000000000000e+00
2.287000000000000e+00  0.0000000000000000e+00  0.0000000000000000e+00  7.0710678118654746e-01  0.0000000000000000e+00  7.0710678118654746e-01  0.0000000000000000e+00  0.0000000000000000e+00  0.0000000000000000e+00
                         7.0710678118654746e-01  0.0000000000000000e+00  0.0000000000000000e+00  0.0000000000000000e+00  0.0000000000000000e+00  0.0000000000000000e+00  7.0710678118654746e-01  1.8000000000000000e+02
                         7.0710678118654746e-01  0.0000000000000000e+00  0.0000000000000000e+00  0.0000000000000000e+00  0.0000000000000000e+00  0.0000000000000000e+00  7.0710678118654746e-01  0.0000000000000000e+00
                         0.0000000000000000e+00  0.0000000000000000e+00  7.0710678118654746e-01  1.8000000000000000e+02  7.0710678118654746e-01  0.0000000000000000e+00  0.0000000000000000e+00  0.0000000000000000e+00
2.288000000000000e+00  0.0000000000000000e+00  0.0000000000000000e+00  7.0710678118654746e-01  0.0000000000000000e+00  7.0710678118654746e-01  0.0000000000000000e+00  0.0000000000000000e+00  0.0000000000000000e+00
                         7.0710678118654746e-01  0.0000000000000000e+00  0.0000000000000000e+00  0.0000000000000000e+00  0.0000000000000000e+00  0.0000000000000000e+00  7.0710678118654746e-01  1.8000000000000000e+02
                         7.0710678118654746e-01  0.0000000000000000e+00  0.0000000000000000e+00  0.0000000000000000e+00  0.0000000000000000e+00  0.0000000000000000e+00  7.0710678118654746e-01  0.0000000000000000e+00
                         0.0000000000000000e+00  0.0000000000000000e+00  7.0710678118654746e-01  1.8000000000000000e+02  7.0710678118654746e-01  0.0000000000000000e+00  0.0000000000000000e+00  0.0000000000000000e+00
2.289000000000000e+00  0.0000000000000000e+00  0.0000000000000000e+00  7.0710678118654746e-01  0.0000000000000000e+00  7.0710678118654746e-01  0.0000000000000000e+00  0.0000000000000000e+00  0.0000000000000000e+00
                         7.0710678118654746e-01  0.0000000000000000e+00  0.0000000000000000e+00  0.0000000000000000e+00  0.0000000000000000e+00  0.0000000000000000e+00  7.0710678118654746e-01  1.8000000000000000e+02
                         7.0710678118654746e-01  0.0000000000000000e+00  0.0000000000000000e+00  0.0000000000000000e+00  0.0000000000000000e+00  0.0000000000000000e+00  7.0710678118654746e-01  0.0000000000000000e+00
                         0.0000000000000000e+00  0.0000000000000000e+00  7.0710678118654746e-01  1.8000000000000000e+02  7.0710678118654746e-01  0.0000000000000000e+00  0.0000000000000000e+00  0.0000000000000000e+00
2.290000000000000e+00  0.0000000000000000e+00  0.0000000000000000e+00  7.0710678118654746e-01  0.0000000000000000e+00  7.0710678118654746e-01  0.0000000000000000e+00  0.0000000000000000e+00  0.0000000000000000e+00
                         7.0710678118654746e-01  0.0000000000000000e+00  0.0000000000000000e+00  0.0000000000000000e+00  0.0000000000000000e+00  0.0000000000000000e+00  7.0710678118654746e-01  1.8000000000000000e+02
                         7.0710678118654746e-01  0.0000000000000000e+00  0.0000000000000000e+00  0.0000000000000000e+00  0.0000000000000000e+00  0.0000000000000000e+00  7.0710678118654746e-01  0.0000000000000000e+00
                         0.0000000000000000e+00  0.0000000000000000e+00  7.0710678118654746e-01  1.8000000000000000e+02  7.0710678118654746e-01  0.0000000000000000e+00  0.0000000000000000e+00  0.0000000000000000e+00
2.291000000000000e+00  0.0000000000000000e+00  0.0000000000000000e+00  7.0710678118654746e-01  0.0000000000000000e+00  7.0710678118654746e-01  0.0000000000000000e+00  0.0000000000000000e+00  0.0000000000000000e+00
                         7.0710678118654746e-01  0.0000000000000000e+00  0.0000000000000000e+00  0.0000000000000000e+00  0.0000000000000000e+00  0.0000000000000000e+00  7.0710678118654746e-01  1.8000000000000000e+02
                         7.0710678118654746e-01  0.0000000000000000e+00  0.0000000000000000e+00  0.0000000000000000e+00  0.0000000000000000e+00  0.0000000000000000e+00  7.0710678118654746e-01  0.0000000000000000e+00
                         0.0000000000000000e+00  0.0000000000000000e+00  7.0710678118654746e-01  1.8000000000000000e+02  7.0710678118654746e-01  0.0000000000000000e+00  0.0000000000000000e+00  0.0000000000000000e+00
2.292000000000000e+00  0.0000000000000000e+00  0.0000000000000000e+00  7.0710678118654746e-01  0.0000000000000000e+00  7.0710678118654746e-01  0.0000000000000000e+00  0.0000000000000000e+00  0.0000000000000000e+00
                         7.0710678118654746e-01  0.0000000000000000e+00  0.0000000000000000e+00  0.0000000000000000e+00  0.0000000000000000e+00  0.0000000000000000e+00  7.0710678118654746e-01  1.8000000000000000e+02
                         7.0710678118654746e-01  0.0000000000000000e+00  0.0000000000000000e+00  0.0000000000000000e+00  0.0000000000000000e+00  0.0000000000000000e+00  7.0710678118654746e-01  0.0000000000000000e+00
                         0.0000000000000000e+00  0.0000000000000000e+00  7.0710678118654746e-01  1.8000000000000000e+02  7.0710678118654746e-01  0.0000000000000000e+00  0.0000000000000000e+00  0.0000000000000000e+00
2.293000000000000e+00  0.0000000000000000e+00  0.0000000000000000e+00  7.0710678118654746e-01  0.0000000000000000e+00  7.0710678118654746e-01  0.0000000000000000e+00  0.0000000000000000e+00  0.0000000000000000e+00
                         7.0710678118654746e-01  0.0000000000000000e+00  0.0000000000000000e+00  0.0000000000000000e+00  0.0000000000000000e+00  0.0000000000000000e+00  7.0710678118654746e-01  1.8000000000000000e+02
                         7.0710678118654746e-01  0.0000000000000000e+00  0.0000000000000000e+00  0.0000000000000000e+00  0.0000000000000000e+00  0.0000000000000000e+00  7.0710678118654746e-01  0.0000000000000000e+00
                         0.0000000000000000e+00  0.0000000000000000e+00  7.0710678118654746e-01  1.8000000000000000e+02  7.0710678118654746e-01  0.0000000000000000e+00  0.0000000000000000e+00  0.0000000000000000e+00
2.294000000000000e+00  0.0000000000000000e+00  0.0000000000000000e+00  7.0710678118654746e-01  0.0000000000000000e+00  7.0710678118654746e-01  0.0000000000000000e+00  0.0000000000000000e+00  0.0000000000000000e+00
                         7.0710678118654746e-01  0.0000000000000000e+00  0.0000000000000000e+00  0.0000000000000000e+00  0.0000000000000000e+00  0.0000000000000000e+00  7.0710678118654746e-01  1.8000000000000000e+02
                         7.0710678118654746e-01  0.0000000000000000e+00  0.0000000000000000e+00  0.0000000000000000e+00  0.0000000000000000e+00  0.0000000000000000e+00  7.0710678118654746e-01  0.0000000000000000e+00
                         0.0000000000000000e+00  0.0000000000000000e+00  7.0710678118654746e-01  1.8000000000000000e+02  7.0710678118654746e-01  0.0000000000000000e+00  0.0000000000000000e+00  0.0000000000000000e+00
2.295000000000000e+00  0.0000000000000000e+00  0.0000000000000000e+00  7.0710678118654746e-01  0.0000000000000000e+00  7.0710678118654746e-01  0.0000000000000000e+00  0.0000000000000000e+00  0.0000000000000000e+00
                         7.0710678118654746e-01  0.0000000000000000e+00  0.0000000000000000e+00  0.0000000000000000e+00  0.0000000000000000e+00  0.0000000000000000e+00  7.0710678118654746e-01  1.8000000000000000e+02
                         7.0710678118654746e-01  0.0000000000000000e+00  0.0000000000000000e+00  0.0000000000000000e+00  0.0000000000000000e+00  0.0000000000000000e+00  7.0710678118654746e-01  0.0000000000000000e+00
                         0.0000000000000000e+00  0.0000000000000000e+00  7.0710678118654746e-01  1.8000000000000000e+02  7.0710678118654746e-01  0.0000000000000000e+00  0.0000000000000000e+00  0.0000000000000000e+00
2.296000000000000e+00  0.0000000000000000e+00  0.0000000000000000e+00  7.0710678118654746e-01  0.0000000000000000e+00  7.0710678118654746e-01  0.0000000000000000e+00  0.0000000000000000e+00  0.0000000000000000e+00
                         7.0710678118654746e-01  0.0000000000000000e+00  0.0000000000000000e+00  0.0000000000000000e+00  0.0000000000000000e+00  0.0000000000000000e+00  7.0710678118654746e-01  1.8000000000000000e+02
                         7.0710678118654746e-01  0.0000000000000000e+00  0.0000000000000000e+00  0.0000000000000000e+00  0.0000000000000000e+00  0.0000000000000000e+00  7.0710678118654746e-01  0.0000000000000000e+00
                         0.0000000000000000e+00  0.0000000000000000e+00  7.0710678118654746e-01  1.8000000000000000e+02  7.0710678118654746e-01  0.0000000000000000e+00  0.0000000000000000e+00  0.0000000000000000e+00
2.297000000000000e+00  0.0000000000000000e+00  0.0000000000000000e+00  7.0710678118654746e-01  0.0000000000000000e+00  7.0710678118654746e-01  0.0000000000000000e+00  0.0000000000000000e+00  0.0000000000000000e+00
                         7.0710678118654746e-01  0.0000000000000000e+00  0.0000000000000000e+00  0.0000000000000000e+00  0.0000000000000000e+00  0.0000000000000000e+00  7.0710678118654746e-01  1.8000000000000000e+02
                         7.0710678118654746e-01  0.0000000000000000e+00  0.0000000000000000e+00  0.0000000000000000e+00  0.0000000000000000e+00  0.0000000000000000e+00  7.0710678118654746e-01  0.0000000000000000e+00
                         0.0000000000000000e+00  0.0000000000000000e+00  7.0710678118654746e-01  1.8000000000000000e+02  7.0710678118654746e-01  0.0000000000000000e+00  0.0000000000000000e+00  0.0000000000000000e+00
2.298000000000000e+00  0.0000000000000000e+00  0.0000000000000000e+00  7.0710678118654746e-01  0.0000000000000000e+00  7.0710678118654746e-01  0.0000000000000000e+00  0.0000000000000000e+00  0.0000000000000000e+00
                         7.0710678118654746e-01  0.0000000000000000e+00  0.0000000000000000e+00  0.0000000000000000e+00  0.0000000000000000e+00  0.0000000000000000e+00  7.0710678118654746e-01  1.8000000000000000e+02
                         7.0710678118654746e-01  0.0000000000000000e+00  0.0000000000000000e+00  0.0000000000000000e+00  0.0000000000000000e+00  0.0000000000000000e+00  7.0710678118654746e-01  0.0000000000000000e+00
                         0.0000000000000000e+00  0.0000000000000000e+00  7.0710678118654746e-01  1.8000000000000000e+02  7.0710678118654746e-01  0.0000000000000000e+00  0.0000000000000000e+00  0.0000000000000000e+00
2.299000000000000e+00  0.0000000000000000e+00  0.0000000000000000e+00  7.0710678118654746e-01  0.0000000000000000e+00  7.0710678118654746e-01  0.0000000000000000e+00  0.0000000000000000e+00  0.0000000000000000e+00
                         7.0710678118654746e-01  0.0000000000000000e+00  0.0000000000000000e+00  0.0000000000000000e+00  0.0000000000000000e+00  0.0000000000000000e+00  7.0710678118654746e-01  1.8000000000000000e+02
                         7.0710678118654746e-01  0.0000000000000000e+00  0.0000000000000000e+00  0.0000000000000000e+00  0.0000000000000000e+00  0.0000000000000000e+00  7.0710678118654746e-01  0.0000000000000000e+00
                         0.0000000000000000e+00  0.0000000000000000e+00  7.0710678118654746e-01  1.8000000000000000e+02  7.0710678118654746e-01  0.0000000000000000e+00  0.0000000000000000e+00  0.0000000000000000e+00
2.300000000000000e+00  0.0000000000000000e+00  0.0000000000000000e+00  7.0710678118654746e-01  0.0000000000000000e+00  7.0710678118654746e-01  0.0000000000000000e+00  0.0000000000000000e+00  0.0000000000000000e+00
                         7.0710678118654746e-01  0.0000000000000000e+00  0.0000000000000000e+00  0.0000000000000000e+00  0.0000000000000000e+00  0.0000000000000000e+00  7.0710678118654746e-01  1.8000000000000000e+02
                         7.0710678118654746e-01  0.0000000000000000e+00  0.0000000000000000e+00  0.0000000000000000e+00  0.0000000000000000e+00  0.0000000000000000e+00  7.0710678118654746e-01  0.0000000000000000e+00
                         0.0000000000000000e+00  0.0000000000000000e+00  7.0710678118654746e-01  1.8000000000000000e+02  7.0710678118654746e-01  0.0000000000000000e+00  0.0000000000000000e+00  0.0000000000000000e+00
2.301000000000000e+00  0.0000000000000000e+00  0.0000000000000000e+00  7.0710678118654746e-01  0.0000000000000000e+00  7.0710678118654746e-01  0.0000000000000000e+00  0.0000000000000000e+00  0.0000000000000000e+00
                         7.0710678118654746e-01  0.0000000000000000e+00  0.0000000000000000e+00  0.0000000000000000e+00  0.0000000000000000e+00  0.0000000000000000e+00  7.0710678118654746e-01  1.8000000000000000e+02
                         7.0710678118654746e-01  0.0000000000000000e+00  0.0000000000000000e+00  0.0000000000000000e+00  0.0000000000000000e+00  0.0000000000000000e+00  7.0710678118654746e-01  0.0000000000000000e+00
                         0.0000000000000000e+00  0.0000000000000000e+00  7.0710678118654746e-01  1.8000000000000000e+02  7.0710678118654746e-01  0.0000000000000000e+00  0.0000000000000000e+00  0.0000000000000000e+00
2.302000000000000e+00  0.0000000000000000e+00  0.0000000000000000e+00  7.0710678118654746e-01  0.0000000000000000e+00  7.0710678118654746e-01  0.0000000000000000e+00  0.0000000000000000e+00  0.0000000000000000e+00
                         7.0710678118654746e-01  0.0000000000000000e+00  0.0000000000000000e+00  0.0000000000000000e+00  0.0000000000000000e+00  0.0000000000000000e+00  7.0710678118654746e-01  1.8000000000000000e+02
                         7.0710678118654746e-01  0.0000000000000000e+00  0.0000000000000000e+00  0.0000000000000000e+00  0.0000000000000000e+00  0.0000000000000000e+00  7.0710678118654746e-01  0.0000000000000000e+00
                         0.0000000000000000e+00  0.0000000000000000e+00  7.0710678118654746e-01  1.8000000000000000e+02  7.0710678118654746e-01  0.0000000000000000e+00  0.0000000000000000e+00  0.0000000000000000e+00
2.303000000000000e+00  0.0000000000000000e+00  0.0000000000000000e+00  7.0710678118654746e-01  0.0000000000000000e+00  7.0710678118654746e-01  0.0000000000000000e+00  0.0000000000000000e+00  0.0000000000000000e+00
                         7.0710678118654746e-01  0.0000000000000000e+00  0.0000000000000000e+00  0.0000000000000000e+00  0.0000000000000000e+00  0.0000000000000000e+00  7.0710678118654746e-01  1.8000000000000000e+02
                         7.0710678118654746e-01  0.0000000000000000e+00  0.0000000000000000e+00  0.0000000000000000e+00  0.0000000000000000e+00  0.0000000000000000e+00  7.0710678118654746e-01  0.0000000000000000e+00
                         0.0000000000000000e+00  0.0000000000000000e+00  7.0710678118654746e-01  1.8000000000000000e+02  7.0710678118654746e-01  0.0000000000000000e+00  0.0000000000000000e+00  0.0000000000000000e+00
2.304000000000000e+00  0.0000000000000000e+00  0.0000000000000000e+00  7.0710678118654746e-01  0.0000000000000000e+00  7.0710678118654746e-01  0.0000000000000000e+00  0.0000000000000000e+00  0.0000000000000000e+00
                         7.0710678118654746e-01  0.0000000000000000e+00  0.0000000000000000e+00  0.0000000000000000e+00  0.0000000000000000e+00  0.0000000000000000e+00  7.0710678118654746e-01  1.8000000000000000e+02
                         7.0710678118654746e-01  0.0000000000000000e+00  0.0000000000000000e+00  0.0000000000000000e+00  0.0000000000000000e+00  0.0000000000000000e+00  7.0710678118654746e-01  0.0000000000000000e+00
                         0.0000000000000000e+00  0.0000000000000000e+00  7.0710678118654746e-01  1.8000000000000000e+02  7.0710678118654746e-01  0.0000000000000000e+00  0.0000000000000000e+00  0.0000000000000000e+00
2.305000000000000e+00  0.0000000000000000e+00  0.0000000000000000e+00  7.0710678118654746e-01  0.0000000000000000e+00  7.0710678118654746e-01  0.0000000000000000e+00  0.0000000000000000e+00  0.0000000000000000e+00
                         7.0710678118654746e-01  0.0000000000000000e+00  0.0000000000000000e+00  0.0000000000000000e+00  0.0000000000000000e+00  0.0000000000000000e+00  7.0710678118654746e-01  1.8000000000000000e+02
                         7.0710678118654746e-01  0.0000000000000000e+00  0.0000000000000000e+00  0.0000000000000000e+00  0.0000000000000000e+00  0.0000000000000000e+00  7.0710678118654746e-01  0.0000000000000000e+00
                         0.0000000000000000e+00  0.0000000000000000e+00  7.0710678118654746e-01  1.8000000000000000e+02  7.0710678118654746e-01  0.0000000000000000e+00  0.0000000000000000e+00  0.0000000000000000e+00
2.306000000000000e+00  0.0000000000000000e+00  0.0000000000000000e+00  7.0710678118654746e-01  0.0000000000000000e+00  7.0710678118654746e-01  0.0000000000000000e+00  0.0000000000000000e+00  0.0000000000000000e+00
                         7.0710678118654746e-01  0.0000000000000000e+00  0.0000000000000000e+00  0.0000000000000000e+00  0.0000000000000000e+00  0.0000000000000000e+00  7.0710678118654746e-01  1.8000000000000000e+02
                         7.0710678118654746e-01  0.0000000000000000e+00  0.0000000000000000e+00  0.0000000000000000e+00  0.0000000000000000e+00  0.0000000000000000e+00  7.0710678118654746e-01  0.0000000000000000e+00
                         0.0000000000000000e+00  0.0000000000000000e+00  7.0710678118654746e-01  1.8000000000000000e+02  7.0710678118654746e-01  0.0000000000000000e+00  0.0000000000000000e+00  0.0000000000000000e+00
2.307000000000000e+00  0.0000000000000000e+00  0.0000000000000000e+00  7.0710678118654746e-01  0.0000000000000000e+00  7.0710678118654746e-01  0.0000000000000000e+00  0.0000000000000000e+00  0.0000000000000000e+00
                         7.0710678118654746e-01  0.0000000000000000e+00  0.0000000000000000e+00  0.0000000000000000e+00  0.0000000000000000e+00  0.0000000000000000e+00  7.0710678118654746e-01  1.8000000000000000e+02
                         7.0710678118654746e-01  0.0000000000000000e+00  0.0000000000000000e+00  0.0000000000000000e+00  0.0000000000000000e+00  0.0000000000000000e+00  7.0710678118654746e-01  0.0000000000000000e+00
                         0.0000000000000000e+00  0.0000000000000000e+00  7.0710678118654746e-01  1.8000000000000000e+02  7.0710678118654746e-01  0.0000000000000000e+00  0.0000000000000000e+00  0.0000000000000000e+00
2.308000000000000e+00  0.0000000000000000e+00  0.0000000000000000e+00  7.0710678118654746e-01  0.0000000000000000e+00  7.0710678118654746e-01  0.0000000000000000e+00  0.0000000000000000e+00  0.0000000000000000e+00
                         7.0710678118654746e-01  0.0000000000000000e+00  0.0000000000000000e+00  0.0000000000000000e+00  0.0000000000000000e+00  0.0000000000000000e+00  7.0710678118654746e-01  1.8000000000000000e+02
                         7.0710678118654746e-01  0.0000000000000000e+00  0.0000000000000000e+00  0.0000000000000000e+00  0.0000000000000000e+00  0.0000000000000000e+00  7.0710678118654746e-01  0.0000000000000000e+00
                         0.0000000000000000e+00  0.0000000000000000e+00  7.0710678118654746e-01  1.8000000000000000e+02  7.0710678118654746e-01  0.0000000000000000e+00  0.0000000000000000e+00  0.0000000000000000e+00
2.309000000000000e+00  0.0000000000000000e+00  0.0000000000000000e+00  7.0710678118654746e-01  0.0000000000000000e+00  7.0710678118654746e-01  0.0000000000000000e+00  0.0000000000000000e+00  0.0000000000000000e+00
                         7.0710678118654746e-01  0.0000000000000000e+00  0.0000000000000000e+00  0.0000000000000000e+00  0.0000000000000000e+00  0.0000000000000000e+00  7.0710678118654746e-01  1.8000000000000000e+02
                         7.0710678118654746e-01  0.0000000000000000e+00  0.0000000000000000e+00  0.0000000000000000e+00  0.0000000000000000e+00  0.0000000000000000e+00  7.0710678118654746e-01  0.0000000000000000e+00
                         0.0000000000000000e+00  0.0000000000000000e+00  7.0710678118654746e-01  1.8000000000000000e+02  7.0710678118654746e-01  0.0000000000000000e+00  0.0000000000000000e+00  0.0000000000000000e+00
2.310000000000000e+00  0.0000000000000000e+00  0.0000000000000000e+00  7.0710678118654746e-01  0.0000000000000000e+00  7.0710678118654746e-01  0.0000000000000000e+00  0.0000000000000000e+00  0.0000000000000000e+00
                         7.0710678118654746e-01  0.0000000000000000e+00  0.0000000000000000e+00  0.0000000000000000e+00  0.0000000000000000e+00  0.0000000000000000e+00  7.0710678118654746e-01  1.8000000000000000e+02
                         7.0710678118654746e-01  0.0000000000000000e+00  0.0000000000000000e+00  0.0000000000000000e+00  0.0000000000000000e+00  0.0000000000000000e+00  7.0710678118654746e-01  0.0000000000000000e+00
                         0.0000000000000000e+00  0.0000000000000000e+00  7.0710678118654746e-01  1.8000000000000000e+02  7.0710678118654746e-01  0.0000000000000000e+00  0.0000000000000000e+00  0.0000000000000000e+00
2.311000000000000e+00  0.0000000000000000e+00  0.0000000000000000e+00  7.0710678118654746e-01  0.0000000000000000e+00  7.0710678118654746e-01  0.0000000000000000e+00  0.0000000000000000e+00  0.0000000000000000e+00
                         7.0710678118654746e-01  0.0000000000000000e+00  0.0000000000000000e+00  0.0000000000000000e+00  0.0000000000000000e+00  0.0000000000000000e+00  7.0710678118654746e-01  1.8000000000000000e+02
                         7.0710678118654746e-01  0.0000000000000000e+00  0.0000000000000000e+00  0.0000000000000000e+00  0.0000000000000000e+00  0.0000000000000000e+00  7.0710678118654746e-01  0.0000000000000000e+00
                         0.0000000000000000e+00  0.0000000000000000e+00  7.0710678118654746e-01  1.8000000000000000e+02  7.0710678118654746e-01  0.0000000000000000e+00  0.0000000000000000e+00  0.0000000000000000e+00
2.312000000000000e+00  0.0000000000000000e+00  0.0000000000000000e+00  7.0710678118654746e-01  0.0000000000000000e+00  7.0710678118654746e-01  0.0000000000000000e+00  0.0000000000000000e+00  0.0000000000000000e+00
                         7.0710678118654746e-01  0.0000000000000000e+00  0.0000000000000000e+00  0.0000000000000000e+00  0.0000000000000000e+00  0.0000000000000000e+00  7.0710678118654746e-01  1.8000000000000000e+02
                         7.0710678118654746e-01  0.0000000000000000e+00  0.0000000000000000e+00  0.0000000000000000e+00  0.0000000000000000e+00  0.0000000000000000e+00  7.0710678118654746e-01  0.0000000000000000e+00
                         0.0000000000000000e+00  0.0000000000000000e+00  7.0710678118654746e-01  1.8000000000000000e+02  7.0710678118654746e-01  0.0000000000000000e+00  0.0000000000000000e+00  0.0000000000000000e+00
2.313000000000000e+00  0.0000000000000000e+00  0.0000000000000000e+00  7.0710678118654746e-01  0.0000000000000000e+00  7.0710678118654746e-01  0.0000000000000000e+00  0.0000000000000000e+00  0.0000000000000000e+00
                         7.0710678118654746e-01  0.0000000000000000e+00  0.0000000000000000e+00  0.0000000000000000e+00  0.0000000000000000e+00  0.0000000000000000e+00  7.0710678118654746e-01  1.8000000000000000e+02
                         7.0710678118654746e-01  0.0000000000000000e+00  0.0000000000000000e+00  0.0000000000000000e+00  0.0000000000000000e+00  0.0000000000000000e+00  7.0710678118654746e-01  0.0000000000000000e+00
                         0.0000000000000000e+00  0.0000000000000000e+00  7.0710678118654746e-01  1.8000000000000000e+02  7.0710678118654746e-01  0.0000000000000000e+00  0.0000000000000000e+00  0.0000000000000000e+00
2.314000000000000e+00  0.0000000000000000e+00  0.0000000000000000e+00  7.0710678118654746e-01  0.0000000000000000e+00  7.0710678118654746e-01  0.0000000000000000e+00  0.0000000000000000e+00  0.0000000000000000e+00
                         7.0710678118654746e-01  0.0000000000000000e+00  0.0000000000000000e+00  0.0000000000000000e+00  0.0000000000000000e+00  0.0000000000000000e+00  7.0710678118654746e-01  1.8000000000000000e+02
                         7.0710678118654746e-01  0.0000000000000000e+00  0.0000000000000000e+00  0.0000000000000000e+00  0.0000000000000000e+00  0.0000000000000000e+00  7.0710678118654746e-01  0.0000000000000000e+00
                         0.0000000000000000e+00  0.0000000000000000e+00  7.0710678118654746e-01  1.8000000000000000e+02  7.0710678118654746e-01  0.0000000000000000e+00  0.0000000000000000e+00  0.0000000000000000e+00
2.315000000000000e+00  0.0000000000000000e+00  0.0000000000000000e+00  7.0710678118654746e-01  0.0000000000000000e+00  7.0710678118654746e-01  0.0000000000000000e+00  0.0000000000000000e+00  0.0000000000000000e+00
                         7.0710678118654746e-01  0.0000000000000000e+00  0.0000000000000000e+00  0.0000000000000000e+00  0.0000000000000000e+00  0.0000000000000000e+00  7.0710678118654746e-01  1.8000000000000000e+02
                         7.0710678118654746e-01  0.0000000000000000e+00  0.0000000000000000e+00  0.0000000000000000e+00  0.0000000000000000e+00  0.0000000000000000e+00  7.0710678118654746e-01  0.0000000000000000e+00
                         0.0000000000000000e+00  0.0000000000000000e+00  7.0710678118654746e-01  1.8000000000000000e+02  7.0710678118654746e-01  0.0000000000000000e+00  0.0000000000000000e+00  0.0000000000000000e+00
2.316000000000000e+00  0.0000000000000000e+00  0.0000000000000000e+00  7.0710678118654746e-01  0.0000000000000000e+00  7.0710678118654746e-01  0.0000000000000000e+00  0.0000000000000000e+00  0.0000000000000000e+00
                         7.0710678118654746e-01  0.0000000000000000e+00  0.0000000000000000e+00  0.0000000000000000e+00  0.0000000000000000e+00  0.0000000000000000e+00  7.0710678118654746e-01  1.8000000000000000e+02
                         7.0710678118654746e-01  0.0000000000000000e+00  0.0000000000000000e+00  0.0000000000000000e+00  0.0000000000000000e+00  0.0000000000000000e+00  7.0710678118654746e-01  0.0000000000000000e+00
                         0.0000000000000000e+00  0.0000000000000000e+00  7.0710678118654746e-01  1.8000000000000000e+02  7.0710678118654746e-01  0.0000000000000000e+00  0.0000000000000000e+00  0.0000000000000000e+00
2.317000000000000e+00  0.0000000000000000e+00  0.0000000000000000e+00  7.0710678118654746e-01  0.0000000000000000e+00  7.0710678118654746e-01  0.0000000000000000e+00  0.0000000000000000e+00  0.0000000000000000e+00
                         7.0710678118654746e-01  0.0000000000000000e+00  0.0000000000000000e+00  0.0000000000000000e+00  0.0000000000000000e+00  0.0000000000000000e+00  7.0710678118654746e-01  1.8000000000000000e+02
                         7.0710678118654746e-01  0.0000000000000000e+00  0.0000000000000000e+00  0.0000000000000000e+00  0.0000000000000000e+00  0.0000000000000000e+00  7.0710678118654746e-01  0.0000000000000000e+00
                         0.0000000000000000e+00  0.0000000000000000e+00  7.0710678118654746e-01  1.8000000000000000e+02  7.0710678118654746e-01  0.0000000000000000e+00  0.0000000000000000e+00  0.0000000000000000e+00
2.318000000000000e+00  0.0000000000000000e+00  0.0000000000000000e+00  7.0710678118654746e-01  0.0000000000000000e+00  7.0710678118654746e-01  0.0000000000000000e+00  0.0000000000000000e+00  0.0000000000000000e+00
                         7.0710678118654746e-01  0.0000000000000000e+00  0.0000000000000000e+00  0.0000000000000000e+00  0.0000000000000000e+00  0.0000000000000000e+00  7.0710678118654746e-01  1.8000000000000000e+02
                         7.0710678118654746e-01  0.0000000000000000e+00  0.0000000000000000e+00  0.0000000000000000e+00  0.0000000000000000e+00  0.0000000000000000e+00  7.0710678118654746e-01  0.0000000000000000e+00
                         0.0000000000000000e+00  0.0000000000000000e+00  7.0710678118654746e-01  1.8000000000000000e+02  7.0710678118654746e-01  0.0000000000000000e+00  0.0000000000000000e+00  0.0000000000000000e+00
2.319000000000000e+00  0.0000000000000000e+00  0.0000000000000000e+00  7.0710678118654746e-01  0.0000000000000000e+00  7.0710678118654746e-01  0.0000000000000000e+00  0.0000000000000000e+00  0.0000000000000000e+00
                         7.0710678118654746e-01  0.0000000000000000e+00  0.0000000000000000e+00  0.0000000000000000e+00  0.0000000000000000e+00  0.0000000000000000e+00  7.0710678118654746e-01  1.8000000000000000e+02
                         7.0710678118654746e-01  0.0000000000000000e+00  0.0000000000000000e+00  0.0000000000000000e+00  0.0000000000000000e+00  0.0000000000000000e+00  7.0710678118654746e-01  0.0000000000000000e+00
                         0.0000000000000000e+00  0.0000000000000000e+00  7.0710678118654746e-01  1.8000000000000000e+02  7.0710678118654746e-01  0.0000000000000000e+00  0.0000000000000000e+00  0.0000000000000000e+00
2.320000000000000e+00  0.0000000000000000e+00  0.0000000000000000e+00  7.0710678118654746e-01  0.0000000000000000e+00  7.0710678118654746e-01  0.0000000000000000e+00  0.0000000000000000e+00  0.0000000000000000e+00
                         7.0710678118654746e-01  0.0000000000000000e+00  0.0000000000000000e+00  0.0000000000000000e+00  0.0000000000000000e+00  0.0000000000000000e+00  7.0710678118654746e-01  1.8000000000000000e+02
                         7.0710678118654746e-01  0.0000000000000000e+00  0.0000000000000000e+00  0.0000000000000000e+00  0.0000000000000000e+00  0.0000000000000000e+00  7.0710678118654746e-01  0.0000000000000000e+00
                         0.0000000000000000e+00  0.0000000000000000e+00  7.0710678118654746e-01  1.8000000000000000e+02  7.0710678118654746e-01  0.0000000000000000e+00  0.0000000000000000e+00  0.0000000000000000e+00
2.321000000000000e+00  0.0000000000000000e+00  0.0000000000000000e+00  7.0710678118654746e-01  0.0000000000000000e+00  7.0710678118654746e-01  0.0000000000000000e+00  0.0000000000000000e+00  0.0000000000000000e+00
                         7.0710678118654746e-01  0.0000000000000000e+00  0.0000000000000000e+00  0.0000000000000000e+00  0.0000000000000000e+00  0.0000000000000000e+00  7.0710678118654746e-01  1.8000000000000000e+02
                         7.0710678118654746e-01  0.0000000000000000e+00  0.0000000000000000e+00  0.0000000000000000e+00  0.0000000000000000e+00  0.0000000000000000e+00  7.0710678118654746e-01  0.0000000000000000e+00
                         0.0000000000000000e+00  0.0000000000000000e+00  7.0710678118654746e-01  1.8000000000000000e+02  7.0710678118654746e-01  0.0000000000000000e+00  0.0000000000000000e+00  0.0000000000000000e+00
2.322000000000000e+00  0.0000000000000000e+00  0.0000000000000000e+00  7.0710678118654746e-01  0.0000000000000000e+00  7.0710678118654746e-01  0.0000000000000000e+00  0.0000000000000000e+00  0.0000000000000000e+00
                         7.0710678118654746e-01  0.0000000000000000e+00  0.0000000000000000e+00  0.0000000000000000e+00  0.0000000000000000e+00  0.0000000000000000e+00  7.0710678118654746e-01  1.8000000000000000e+02
                         7.0710678118654746e-01  0.0000000000000000e+00  0.0000000000000000e+00  0.0000000000000000e+00  0.0000000000000000e+00  0.0000000000000000e+00  7.0710678118654746e-01  0.0000000000000000e+00
                         0.0000000000000000e+00  0.0000000000000000e+00  7.0710678118654746e-01  1.8000000000000000e+02  7.0710678118654746e-01  0.0000000000000000e+00  0.0000000000000000e+00  0.0000000000000000e+00
2.323000000000000e+00  0.0000000000000000e+00  0.0000000000000000e+00  7.0710678118654746e-01  0.0000000000000000e+00  7.0710678118654746e-01  0.0000000000000000e+00  0.0000000000000000e+00  0.0000000000000000e+00
                         7.0710678118654746e-01  0.0000000000000000e+00  0.0000000000000000e+00  0.0000000000000000e+00  0.0000000000000000e+00  0.0000000000000000e+00  7.0710678118654746e-01  1.8000000000000000e+02
                         7.0710678118654746e-01  0.0000000000000000e+00  0.0000000000000000e+00  0.0000000000000000e+00  0.0000000000000000e+00  0.0000000000000000e+00  7.0710678118654746e-01  0.0000000000000000e+00
                         0.0000000000000000e+00  0.0000000000000000e+00  7.0710678118654746e-01  1.8000000000000000e+02  7.0710678118654746e-01  0.0000000000000000e+00  0.0000000000000000e+00  0.0000000000000000e+00
2.324000000000000e+00  0.0000000000000000e+00  0.0000000000000000e+00  7.0710678118654746e-01  0.0000000000000000e+00  7.0710678118654746e-01  0.0000000000000000e+00  0.0000000000000000e+00  0.0000000000000000e+00
                         7.0710678118654746e-01  0.0000000000000000e+00  0.0000000000000000e+00  0.0000000000000000e+00  0.0000000000000000e+00  0.0000000000000000e+00  7.0710678118654746e-01  1.8000000000000000e+02
                         7.0710678118654746e-01  0.0000000000000000e+00  0.0000000000000000e+00  0.0000000000000000e+00  0.0000000000000000e+00  0.0000000000000000e+00  7.0710678118654746e-01  0.0000000000000000e+00
                         0.0000000000000000e+00  0.0000000000000000e+00  7.0710678118654746e-01  1.8000000000000000e+02  7.0710678118654746e-01  0.0000000000000000e+00  0.0000000000000000e+00  0.0000000000000000e+00
2.325000000000000e+00  0.0000000000000000e+00  0.0000000000000000e+00  7.0710678118654746e-01  0.0000000000000000e+00  7.0710678118654746e-01  0.0000000000000000e+00  0.0000000000000000e+00  0.0000000000000000e+00
                         7.0710678118654746e-01  0.0000000000000000e+00  0.0000000000000000e+00  0.0000000000000000e+00  0.0000000000000000e+00  0.0000000000000000e+00  7.0710678118654746e-01  1.8000000000000000e+02
                         7.0710678118654746e-01  0.0000000000000000e+00  0.0000000000000000e+00  0.0000000000000000e+00  0.0000000000000000e+00  0.0000000000000000e+00  7.0710678118654746e-01  0.0000000000000000e+00
                         0.0000000000000000e+00  0.0000000000000000e+00  7.0710678118654746e-01  1.8000000000000000e+02  7.0710678118654746e-01  0.0000000000000000e+00  0.0000000000000000e+00  0.0000000000000000e+00
2.326000000000000e+00  0.0000000000000000e+00  0.0000000000000000e+00  7.0710678118654746e-01  0.0000000000000000e+00  7.0710678118654746e-01  0.0000000000000000e+00  0.0000000000000000e+00  0.0000000000000000e+00
                         7.0710678118654746e-01  0.0000000000000000e+00  0.0000000000000000e+00  0.0000000000000000e+00  0.0000000000000000e+00  0.0000000000000000e+00  7.0710678118654746e-01  1.8000000000000000e+02
                         7.0710678118654746e-01  0.0000000000000000e+00  0.0000000000000000e+00  0.0000000000000000e+00  0.0000000000000000e+00  0.0000000000000000e+00  7.0710678118654746e-01  0.0000000000000000e+00
                         0.0000000000000000e+00  0.0000000000000000e+00  7.0710678118654746e-01  1.8000000000000000e+02  7.0710678118654746e-01  0.0000000000000000e+00  0.0000000000000000e+00  0.0000000000000000e+00
2.327000000000000e+00  0.0000000000000000e+00  0.0000000000000000e+00  7.0710678118654746e-01  0.0000000000000000e+00  7.0710678118654746e-01  0.0000000000000000e+00  0.0000000000000000e+00  0.0000000000000000e+00
                         7.0710678118654746e-01  0.0000000000000000e+00  0.0000000000000000e+00  0.0000000000000000e+00  0.0000000000000000e+00  0.0000000000000000e+00  7.0710678118654746e-01  1.8000000000000000e+02
                         7.0710678118654746e-01  0.0000000000000000e+00  0.0000000000000000e+00  0.0000000000000000e+00  0.0000000000000000e+00  0.0000000000000000e+00  7.0710678118654746e-01  0.0000000000000000e+00
                         0.0000000000000000e+00  0.0000000000000000e+00  7.0710678118654746e-01  1.8000000000000000e+02  7.0710678118654746e-01  0.0000000000000000e+00  0.0000000000000000e+00  0.0000000000000000e+00
2.328000000000000e+00  0.0000000000000000e+00  0.0000000000000000e+00  7.0710678118654746e-01  0.0000000000000000e+00  7.0710678118654746e-01  0.0000000000000000e+00  0.0000000000000000e+00  0.0000000000000000e+00
                         7.0710678118654746e-01  0.0000000000000000e+00  0.0000000000000000e+00  0.0000000000000000e+00  0.0000000000000000e+00  0.0000000000000000e+00  7.0710678118654746e-01  1.8000000000000000e+02
                         7.0710678118654746e-01  0.0000000000000000e+00  0.0000000000000000e+00  0.0000000000000000e+00  0.0000000000000000e+00  0.0000000000000000e+00  7.0710678118654746e-01  0.0000000000000000e+00
                         0.0000000000000000e+00  0.0000000000000000e+00  7.0710678118654746e-01  1.8000000000000000e+02  7.0710678118654746e-01  0.0000000000000000e+00  0.0000000000000000e+00  0.0000000000000000e+00
2.329000000000000e+00  0.0000000000000000e+00  0.0000000000000000e+00  7.0710678118654746e-01  0.0000000000000000e+00  7.0710678118654746e-01  0.0000000000000000e+00  0.0000000000000000e+00  0.0000000000000000e+00
                         7.0710678118654746e-01  0.0000000000000000e+00  0.0000000000000000e+00  0.0000000000000000e+00  0.0000000000000000e+00  0.0000000000000000e+00  7.0710678118654746e-01  1.8000000000000000e+02
                         7.0710678118654746e-01  0.0000000000000000e+00  0.0000000000000000e+00  0.0000000000000000e+00  0.0000000000000000e+00  0.0000000000000000e+00  7.0710678118654746e-01  0.0000000000000000e+00
                         0.0000000000000000e+00  0.0000000000000000e+00  7.0710678118654746e-01  1.8000000000000000e+02  7.0710678118654746e-01  0.0000000000000000e+00  0.0000000000000000e+00  0.0000000000000000e+00
2.330000000000000e+00  0.0000000000000000e+00  0.0000000000000000e+00  7.0710678118654746e-01  0.0000000000000000e+00  7.0710678118654746e-01  0.0000000000000000e+00  0.0000000000000000e+00  0.0000000000000000e+00
                         7.0710678118654746e-01  0.0000000000000000e+00  0.0000000000000000e+00  0.0000000000000000e+00  0.0000000000000000e+00  0.0000000000000000e+00  7.0710678118654746e-01  1.8000000000000000e+02
                         7.0710678118654746e-01  0.0000000000000000e+00  0.0000000000000000e+00  0.0000000000000000e+00  0.0000000000000000e+00  0.0000000000000000e+00  7.0710678118654746e-01  0.0000000000000000e+00
                         0.0000000000000000e+00  0.0000000000000000e+00  7.0710678118654746e-01  1.8000000000000000e+02  7.0710678118654746e-01  0.0000000000000000e+00  0.0000000000000000e+00  0.0000000000000000e+00
2.331000000000000e+00  0.0000000000000000e+00  0.0000000000000000e+00  7.0710678118654746e-01  0.0000000000000000e+00  7.0710678118654746e-01  0.0000000000000000e+00  0.0000000000000000e+00  0.0000000000000000e+00
                         7.0710678118654746e-01  0.0000000000000000e+00  0.0000000000000000e+00  0.0000000000000000e+00  0.0000000000000000e+00  0.0000000000000000e+00  7.0710678118654746e-01  1.8000000000000000e+02
                         7.0710678118654746e-01  0.0000000000000000e+00  0.0000000000000000e+00  0.0000000000000000e+00  0.0000000000000000e+00  0.0000000000000000e+00  7.0710678118654746e-01  0.0000000000000000e+00
                         0.0000000000000000e+00  0.0000000000000000e+00  7.0710678118654746e-01  1.8000000000000000e+02  7.0710678118654746e-01  0.0000000000000000e+00  0.0000000000000000e+00  0.0000000000000000e+00
2.332000000000000e+00  0.0000000000000000e+00  0.0000000000000000e+00  7.0710678118654746e-01  0.0000000000000000e+00  7.0710678118654746e-01  0.0000000000000000e+00  0.0000000000000000e+00  0.0000000000000000e+00
                         7.0710678118654746e-01  0.0000000000000000e+00  0.0000000000000000e+00  0.0000000000000000e+00  0.0000000000000000e+00  0.0000000000000000e+00  7.0710678118654746e-01  1.8000000000000000e+02
                         7.0710678118654746e-01  0.0000000000000000e+00  0.0000000000000000e+00  0.0000000000000000e+00  0.0000000000000000e+00  0.0000000000000000e+00  7.0710678118654746e-01  0.0000000000000000e+00
                         0.0000000000000000e+00  0.0000000000000000e+00  7.0710678118654746e-01  1.8000000000000000e+02  7.0710678118654746e-01  0.0000000000000000e+00  0.0000000000000000e+00  0.0000000000000000e+00
2.333000000000000e+00  0.0000000000000000e+00  0.0000000000000000e+00  7.0710678118654746e-01  0.0000000000000000e+00  7.0710678118654746e-01  0.0000000000000000e+00  0.0000000000000000e+00  0.0000000000000000e+00
                         7.0710678118654746e-01  0.0000000000000000e+00  0.0000000000000000e+00  0.0000000000000000e+00  0.0000000000000000e+00  0.0000000000000000e+00  7.0710678118654746e-01  1.8000000000000000e+02
                         7.0710678118654746e-01  0.0000000000000000e+00  0.0000000000000000e+00  0.0000000000000000e+00  0.0000000000000000e+00  0.0000000000000000e+00  7.0710678118654746e-01  0.0000000000000000e+00
                         0.0000000000000000e+00  0.0000000000000000e+00  7.0710678118654746e-01  1.8000000000000000e+02  7.0710678118654746e-01  0.0000000000000000e+00  0.0000000000000000e+00  0.0000000000000000e+00
2.334000000000000e+00  0.0000000000000000e+00  0.0000000000000000e+00  7.0710678118654746e-01  0.0000000000000000e+00  7.0710678118654746e-01  0.0000000000000000e+00  0.0000000000000000e+00  0.0000000000000000e+00
                         7.0710678118654746e-01  0.0000000000000000e+00  0.0000000000000000e+00  0.0000000000000000e+00  0.0000000000000000e+00  0.0000000000000000e+00  7.0710678118654746e-01  1.8000000000000000e+02
                         7.0710678118654746e-01  0.0000000000000000e+00  0.0000000000000000e+00  0.0000000000000000e+00  0.0000000000000000e+00  0.0000000000000000e+00  7.0710678118654746e-01  0.0000000000000000e+00
                         0.0000000000000000e+00  0.0000000000000000e+00  7.0710678118654746e-01  1.8000000000000000e+02  7.0710678118654746e-01  0.0000000000000000e+00  0.0000000000000000e+00  0.0000000000000000e+00
2.335000000000000e+00  0.0000000000000000e+00  0.0000000000000000e+00  7.0710678118654746e-01  0.0000000000000000e+00  7.0710678118654746e-01  0.0000000000000000e+00  0.0000000000000000e+00  0.0000000000000000e+00
                         7.0710678118654746e-01  0.0000000000000000e+00  0.0000000000000000e+00  0.0000000000000000e+00  0.0000000000000000e+00  0.0000000000000000e+00  7.0710678118654746e-01  1.8000000000000000e+02
                         7.0710678118654746e-01  0.0000000000000000e+00  0.0000000000000000e+00  0.0000000000000000e+00  0.0000000000000000e+00  0.0000000000000000e+00  7.0710678118654746e-01  0.0000000000000000e+00
                         0.0000000000000000e+00  0.0000000000000000e+00  7.0710678118654746e-01  1.8000000000000000e+02  7.0710678118654746e-01  0.0000000000000000e+00  0.0000000000000000e+00  0.0000000000000000e+00
2.336000000000000e+00  0.0000000000000000e+00  0.0000000000000000e+00  7.0710678118654746e-01  0.0000000000000000e+00  7.0710678118654746e-01  0.0000000000000000e+00  0.0000000000000000e+00  0.0000000000000000e+00
                         7.0710678118654746e-01  0.0000000000000000e+00  0.0000000000000000e+00  0.0000000000000000e+00  0.0000000000000000e+00  0.0000000000000000e+00  7.0710678118654746e-01  1.8000000000000000e+02
                         7.0710678118654746e-01  0.0000000000000000e+00  0.0000000000000000e+00  0.0000000000000000e+00  0.0000000000000000e+00  0.0000000000000000e+00  7.0710678118654746e-01  0.0000000000000000e+00
                         0.0000000000000000e+00  0.0000000000000000e+00  7.0710678118654746e-01  1.8000000000000000e+02  7.0710678118654746e-01  0.0000000000000000e+00  0.0000000000000000e+00  0.0000000000000000e+00
2.337000000000000e+00  0.0000000000000000e+00  0.0000000000000000e+00  7.0710678118654746e-01  0.0000000000000000e+00  7.0710678118654746e-01  0.0000000000000000e+00  0.0000000000000000e+00  0.0000000000000000e+00
                         7.0710678118654746e-01  0.0000000000000000e+00  0.0000000000000000e+00  0.0000000000000000e+00  0.0000000000000000e+00  0.0000000000000000e+00  7.0710678118654746e-01  1.8000000000000000e+02
                         7.0710678118654746e-01  0.0000000000000000e+00  0.0000000000000000e+00  0.0000000000000000e+00  0.0000000000000000e+00  0.0000000000000000e+00  7.0710678118654746e-01  0.0000000000000000e+00
                         0.0000000000000000e+00  0.0000000000000000e+00  7.0710678118654746e-01  1.8000000000000000e+02  7.0710678118654746e-01  0.0000000000000000e+00  0.0000000000000000e+00  0.0000000000000000e+00
2.338000000000000e+00  0.0000000000000000e+00  0.0000000000000000e+00  7.0710678118654746e-01  0.0000000000000000e+00  7.0710678118654746e-01  0.0000000000000000e+00  0.0000000000000000e+00  0.0000000000000000e+00
                         7.0710678118654746e-01  0.0000000000000000e+00  0.0000000000000000e+00  0.0000000000000000e+00  0.0000000000000000e+00  0.0000000000000000e+00  7.0710678118654746e-01  1.8000000000000000e+02
                         7.0710678118654746e-01  0.0000000000000000e+00  0.0000000000000000e+00  0.0000000000000000e+00  0.0000000000000000e+00  0.0000000000000000e+00  7.0710678118654746e-01  0.0000000000000000e+00
                         0.0000000000000000e+00  0.0000000000000000e+00  7.0710678118654746e-01  1.8000000000000000e+02  7.0710678118654746e-01  0.0000000000000000e+00  0.0000000000000000e+00  0.0000000000000000e+00
2.339000000000000e+00  0.0000000000000000e+00  0.0000000000000000e+00  7.0710678118654746e-01  0.0000000000000000e+00  7.0710678118654746e-01  0.0000000000000000e+00  0.0000000000000000e+00  0.0000000000000000e+00
                         7.0710678118654746e-01  0.0000000000000000e+00  0.0000000000000000e+00  0.0000000000000000e+00  0.0000000000000000e+00  0.0000000000000000e+00  7.0710678118654746e-01  1.8000000000000000e+02
                         7.0710678118654746e-01  0.0000000000000000e+00  0.0000000000000000e+00  0.0000000000000000e+00  0.0000000000000000e+00  0.0000000000000000e+00  7.0710678118654746e-01  0.0000000000000000e+00
                         0.0000000000000000e+00  0.0000000000000000e+00  7.0710678118654746e-01  1.8000000000000000e+02  7.0710678118654746e-01  0.0000000000000000e+00  0.0000000000000000e+00  0.0000000000000000e+00
2.340000000000000e+00  0.0000000000000000e+00  0.0000000000000000e+00  7.0710678118654746e-01  0.0000000000000000e+00  7.0710678118654746e-01  0.0000000000000000e+00  0.0000000000000000e+00  0.0000000000000000e+00
                         7.0710678118654746e-01  0.0000000000000000e+00  0.0000000000000000e+00  0.0000000000000000e+00  0.0000000000000000e+00  0.0000000000000000e+00  7.0710678118654746e-01  1.8000000000000000e+02
                         7.0710678118654746e-01  0.0000000000000000e+00  0.0000000000000000e+00  0.0000000000000000e+00  0.0000000000000000e+00  0.0000000000000000e+00  7.0710678118654746e-01  0.0000000000000000e+00
                         0.0000000000000000e+00  0.0000000000000000e+00  7.0710678118654746e-01  1.8000000000000000e+02  7.0710678118654746e-01  0.0000000000000000e+00  0.0000000000000000e+00  0.0000000000000000e+00
2.341000000000000e+00  0.0000000000000000e+00  0.0000000000000000e+00  7.0710678118654746e-01  0.0000000000000000e+00  7.0710678118654746e-01  0.0000000000000000e+00  0.0000000000000000e+00  0.0000000000000000e+00
                         7.0710678118654746e-01  0.0000000000000000e+00  0.0000000000000000e+00  0.0000000000000000e+00  0.0000000000000000e+00  0.0000000000000000e+00  7.0710678118654746e-01  1.8000000000000000e+02
                         7.0710678118654746e-01  0.0000000000000000e+00  0.0000000000000000e+00  0.0000000000000000e+00  0.0000000000000000e+00  0.0000000000000000e+00  7.0710678118654746e-01  0.0000000000000000e+00
                         0.0000000000000000e+00  0.0000000000000000e+00  7.0710678118654746e-01  1.8000000000000000e+02  7.0710678118654746e-01  0.0000000000000000e+00  0.0000000000000000e+00  0.0000000000000000e+00
2.342000000000000e+00  0.0000000000000000e+00  0.0000000000000000e+00  7.0710678118654746e-01  0.0000000000000000e+00  7.0710678118654746e-01  0.0000000000000000e+00  0.0000000000000000e+00  0.0000000000000000e+00
                         7.0710678118654746e-01  0.0000000000000000e+00  0.0000000000000000e+00  0.0000000000000000e+00  0.0000000000000000e+00  0.0000000000000000e+00  7.0710678118654746e-01  1.8000000000000000e+02
                         7.0710678118654746e-01  0.0000000000000000e+00  0.0000000000000000e+00  0.0000000000000000e+00  0.0000000000000000e+00  0.0000000000000000e+00  7.0710678118654746e-01  0.0000000000000000e+00
                         0.0000000000000000e+00  0.0000000000000000e+00  7.0710678118654746e-01  1.8000000000000000e+02  7.0710678118654746e-01  0.0000000000000000e+00  0.0000000000000000e+00  0.0000000000000000e+00
2.343000000000000e+00  0.0000000000000000e+00  0.0000000000000000e+00  7.0710678118654746e-01  0.0000000000000000e+00  7.0710678118654746e-01  0.0000000000000000e+00  0.0000000000000000e+00  0.0000000000000000e+00
                         7.0710678118654746e-01  0.0000000000000000e+00  0.0000000000000000e+00  0.0000000000000000e+00  0.0000000000000000e+00  0.0000000000000000e+00  7.0710678118654746e-01  1.8000000000000000e+02
                         7.0710678118654746e-01  0.0000000000000000e+00  0.0000000000000000e+00  0.0000000000000000e+00  0.0000000000000000e+00  0.0000000000000000e+00  7.0710678118654746e-01  0.0000000000000000e+00
                         0.0000000000000000e+00  0.0000000000000000e+00  7.0710678118654746e-01  1.8000000000000000e+02  7.0710678118654746e-01  0.0000000000000000e+00  0.0000000000000000e+00  0.0000000000000000e+00
2.344000000000000e+00  0.0000000000000000e+00  0.0000000000000000e+00  7.0710678118654746e-01  0.0000000000000000e+00  7.0710678118654746e-01  0.0000000000000000e+00  0.0000000000000000e+00  0.0000000000000000e+00
                         7.0710678118654746e-01  0.0000000000000000e+00  0.0000000000000000e+00  0.0000000000000000e+00  0.0000000000000000e+00  0.0000000000000000e+00  7.0710678118654746e-01  1.8000000000000000e+02
                         7.0710678118654746e-01  0.0000000000000000e+00  0.0000000000000000e+00  0.0000000000000000e+00  0.0000000000000000e+00  0.0000000000000000e+00  7.0710678118654746e-01  0.0000000000000000e+00
                         0.0000000000000000e+00  0.0000000000000000e+00  7.0710678118654746e-01  1.8000000000000000e+02  7.0710678118654746e-01  0.0000000000000000e+00  0.0000000000000000e+00  0.0000000000000000e+00
2.345000000000000e+00  0.0000000000000000e+00  0.0000000000000000e+00  7.0710678118654746e-01  0.0000000000000000e+00  7.0710678118654746e-01  0.0000000000000000e+00  0.0000000000000000e+00  0.0000000000000000e+00
                         7.0710678118654746e-01  0.0000000000000000e+00  0.0000000000000000e+00  0.0000000000000000e+00  0.0000000000000000e+00  0.0000000000000000e+00  7.0710678118654746e-01  1.8000000000000000e+02
                         7.0710678118654746e-01  0.0000000000000000e+00  0.0000000000000000e+00  0.0000000000000000e+00  0.0000000000000000e+00  0.0000000000000000e+00  7.0710678118654746e-01  0.0000000000000000e+00
                         0.0000000000000000e+00  0.0000000000000000e+00  7.0710678118654746e-01  1.8000000000000000e+02  7.0710678118654746e-01  0.0000000000000000e+00  0.0000000000000000e+00  0.0000000000000000e+00
2.346000000000000e+00  0.0000000000000000e+00  0.0000000000000000e+00  7.0710678118654746e-01  0.0000000000000000e+00  7.0710678118654746e-01  0.0000000000000000e+00  0.0000000000000000e+00  0.0000000000000000e+00
                         7.0710678118654746e-01  0.0000000000000000e+00  0.0000000000000000e+00  0.0000000000000000e+00  0.0000000000000000e+00  0.0000000000000000e+00  7.0710678118654746e-01  1.8000000000000000e+02
                         7.0710678118654746e-01  0.0000000000000000e+00  0.0000000000000000e+00  0.0000000000000000e+00  0.0000000000000000e+00  0.0000000000000000e+00  7.0710678118654746e-01  0.0000000000000000e+00
                         0.0000000000000000e+00  0.0000000000000000e+00  7.0710678118654746e-01  1.8000000000000000e+02  7.0710678118654746e-01  0.0000000000000000e+00  0.0000000000000000e+00  0.0000000000000000e+00
2.347000000000000e+00  0.0000000000000000e+00  0.0000000000000000e+00  7.0710678118654746e-01  0.0000000000000000e+00  7.0710678118654746e-01  0.0000000000000000e+00  0.0000000000000000e+00  0.0000000000000000e+00
                         7.0710678118654746e-01  0.0000000000000000e+00  0.0000000000000000e+00  0.0000000000000000e+00  0.0000000000000000e+00  0.0000000000000000e+00  7.0710678118654746e-01  1.8000000000000000e+02
                         7.0710678118654746e-01  0.0000000000000000e+00  0.0000000000000000e+00  0.0000000000000000e+00  0.0000000000000000e+00  0.0000000000000000e+00  7.0710678118654746e-01  0.0000000000000000e+00
                         0.0000000000000000e+00  0.0000000000000000e+00  7.0710678118654746e-01  1.8000000000000000e+02  7.0710678118654746e-01  0.0000000000000000e+00  0.0000000000000000e+00  0.0000000000000000e+00
2.348000000000000e+00  0.0000000000000000e+00  0.0000000000000000e+00  7.0710678118654746e-01  0.0000000000000000e+00  7.0710678118654746e-01  0.0000000000000000e+00  0.0000000000000000e+00  0.0000000000000000e+00
                         7.0710678118654746e-01  0.0000000000000000e+00  0.0000000000000000e+00  0.0000000000000000e+00  0.0000000000000000e+00  0.0000000000000000e+00  7.0710678118654746e-01  1.8000000000000000e+02
                         7.0710678118654746e-01  0.0000000000000000e+00  0.0000000000000000e+00  0.0000000000000000e+00  0.0000000000000000e+00  0.0000000000000000e+00  7.0710678118654746e-01  0.0000000000000000e+00
                         0.0000000000000000e+00  0.0000000000000000e+00  7.0710678118654746e-01  1.8000000000000000e+02  7.0710678118654746e-01  0.0000000000000000e+00  0.0000000000000000e+00  0.0000000000000000e+00
2.349000000000000e+00  0.0000000000000000e+00  0.0000000000000000e+00  7.0710678118654746e-01  0.0000000000000000e+00  7.0710678118654746e-01  0.0000000000000000e+00  0.0000000000000000e+00  0.0000000000000000e+00
                         7.0710678118654746e-01  0.0000000000000000e+00  0.0000000000000000e+00  0.0000000000000000e+00  0.0000000000000000e+00  0.0000000000000000e+00  7.0710678118654746e-01  1.8000000000000000e+02
                         7.0710678118654746e-01  0.0000000000000000e+00  0.0000000000000000e+00  0.0000000000000000e+00  0.0000000000000000e+00  0.0000000000000000e+00  7.0710678118654746e-01  0.0000000000000000e+00
                         0.0000000000000000e+00  0.0000000000000000e+00  7.0710678118654746e-01  1.8000000000000000e+02  7.0710678118654746e-01  0.0000000000000000e+00  0.0000000000000000e+00  0.0000000000000000e+00
2.350000000000000e+00  0.0000000000000000e+00  0.0000000000000000e+00  7.0710678118654746e-01  0.0000000000000000e+00  7.0710678118654746e-01  0.0000000000000000e+00  0.0000000000000000e+00  0.0000000000000000e+00
                         7.0710678118654746e-01  0.0000000000000000e+00  0.0000000000000000e+00  0.0000000000000000e+00  0.0000000000000000e+00  0.0000000000000000e+00  7.0710678118654746e-01  1.8000000000000000e+02
                         7.0710678118654746e-01  0.0000000000000000e+00  0.0000000000000000e+00  0.0000000000000000e+00  0.0000000000000000e+00  0.0000000000000000e+00  7.0710678118654746e-01  0.0000000000000000e+00
                         0.0000000000000000e+00  0.0000000000000000e+00  7.0710678118654746e-01  1.8000000000000000e+02  7.0710678118654746e-01  0.0000000000000000e+00  0.0000000000000000e+00  0.0000000000000000e+00
2.351000000000000e+00  0.0000000000000000e+00  0.0000000000000000e+00  7.0710678118654746e-01  0.0000000000000000e+00  7.0710678118654746e-01  0.0000000000000000e+00  0.0000000000000000e+00  0.0000000000000000e+00
                         7.0710678118654746e-01  0.0000000000000000e+00  0.0000000000000000e+00  0.0000000000000000e+00  0.0000000000000000e+00  0.0000000000000000e+00  7.0710678118654746e-01  1.8000000000000000e+02
                         7.0710678118654746e-01  0.0000000000000000e+00  0.0000000000000000e+00  0.0000000000000000e+00  0.0000000000000000e+00  0.0000000000000000e+00  7.0710678118654746e-01  0.0000000000000000e+00
                         0.0000000000000000e+00  0.0000000000000000e+00  7.0710678118654746e-01  1.8000000000000000e+02  7.0710678118654746e-01  0.0000000000000000e+00  0.0000000000000000e+00  0.0000000000000000e+00
2.352000000000000e+00  0.0000000000000000e+00  0.0000000000000000e+00  7.0710678118654746e-01  0.0000000000000000e+00  7.0710678118654746e-01  0.0000000000000000e+00  0.0000000000000000e+00  0.0000000000000000e+00
                         7.0710678118654746e-01  0.0000000000000000e+00  0.0000000000000000e+00  0.0000000000000000e+00  0.0000000000000000e+00  0.0000000000000000e+00  7.0710678118654746e-01  1.8000000000000000e+02
                         7.0710678118654746e-01  0.0000000000000000e+00  0.0000000000000000e+00  0.0000000000000000e+00  0.0000000000000000e+00  0.0000000000000000e+00  7.0710678118654746e-01  0.0000000000000000e+00
                         0.0000000000000000e+00  0.0000000000000000e+00  7.0710678118654746e-01  1.8000000000000000e+02  7.0710678118654746e-01  0.0000000000000000e+00  0.0000000000000000e+00  0.0000000000000000e+00
2.353000000000000e+00  0.0000000000000000e+00  0.0000000000000000e+00  7.0710678118654746e-01  0.0000000000000000e+00  7.0710678118654746e-01  0.0000000000000000e+00  0.0000000000000000e+00  0.0000000000000000e+00
                         7.0710678118654746e-01  0.0000000000000000e+00  0.0000000000000000e+00  0.0000000000000000e+00  0.0000000000000000e+00  0.0000000000000000e+00  7.0710678118654746e-01  1.8000000000000000e+02
                         7.0710678118654746e-01  0.0000000000000000e+00  0.0000000000000000e+00  0.0000000000000000e+00  0.0000000000000000e+00  0.0000000000000000e+00  7.0710678118654746e-01  0.0000000000000000e+00
                         0.0000000000000000e+00  0.0000000000000000e+00  7.0710678118654746e-01  1.8000000000000000e+02  7.0710678118654746e-01  0.0000000000000000e+00  0.0000000000000000e+00  0.0000000000000000e+00
2.354000000000000e+00  0.0000000000000000e+00  0.0000000000000000e+00  7.0710678118654746e-01  0.0000000000000000e+00  7.0710678118654746e-01  0.0000000000000000e+00  0.0000000000000000e+00  0.0000000000000000e+00
                         7.0710678118654746e-01  0.0000000000000000e+00  0.0000000000000000e+00  0.0000000000000000e+00  0.0000000000000000e+00  0.0000000000000000e+00  7.0710678118654746e-01  1.8000000000000000e+02
                         7.0710678118654746e-01  0.0000000000000000e+00  0.0000000000000000e+00  0.0000000000000000e+00  0.0000000000000000e+00  0.0000000000000000e+00  7.0710678118654746e-01  0.0000000000000000e+00
                         0.0000000000000000e+00  0.0000000000000000e+00  7.0710678118654746e-01  1.8000000000000000e+02  7.0710678118654746e-01  0.0000000000000000e+00  0.0000000000000000e+00  0.0000000000000000e+00
2.355000000000000e+00  0.0000000000000000e+00  0.0000000000000000e+00  7.0710678118654746e-01  0.0000000000000000e+00  7.0710678118654746e-01  0.0000000000000000e+00  0.0000000000000000e+00  0.0000000000000000e+00
                         7.0710678118654746e-01  0.0000000000000000e+00  0.0000000000000000e+00  0.0000000000000000e+00  0.0000000000000000e+00  0.0000000000000000e+00  7.0710678118654746e-01  1.8000000000000000e+02
                         7.0710678118654746e-01  0.0000000000000000e+00  0.0000000000000000e+00  0.0000000000000000e+00  0.0000000000000000e+00  0.0000000000000000e+00  7.0710678118654746e-01  0.0000000000000000e+00
                         0.0000000000000000e+00  0.0000000000000000e+00  7.0710678118654746e-01  1.8000000000000000e+02  7.0710678118654746e-01  0.0000000000000000e+00  0.0000000000000000e+00  0.0000000000000000e+00
2.356000000000000e+00  0.0000000000000000e+00  0.0000000000000000e+00  7.0710678118654746e-01  0.0000000000000000e+00  7.0710678118654746e-01  0.0000000000000000e+00  0.0000000000000000e+00  0.0000000000000000e+00
                         7.0710678118654746e-01  0.0000000000000000e+00  0.0000000000000000e+00  0.0000000000000000e+00  0.0000000000000000e+00  0.0000000000000000e+00  7.0710678118654746e-01  1.8000000000000000e+02
                         7.0710678118654746e-01  0.0000000000000000e+00  0.0000000000000000e+00  0.0000000000000000e+00  0.0000000000000000e+00  0.0000000000000000e+00  7.0710678118654746e-01  0.0000000000000000e+00
                         0.0000000000000000e+00  0.0000000000000000e+00  7.0710678118654746e-01  1.8000000000000000e+02  7.0710678118654746e-01  0.0000000000000000e+00  0.0000000000000000e+00  0.0000000000000000e+00
2.357000000000000e+00  0.0000000000000000e+00  0.0000000000000000e+00  7.0710678118654746e-01  0.0000000000000000e+00  7.0710678118654746e-01  0.0000000000000000e+00  0.0000000000000000e+00  0.0000000000000000e+00
                         7.0710678118654746e-01  0.0000000000000000e+00  0.0000000000000000e+00  0.0000000000000000e+00  0.0000000000000000e+00  0.0000000000000000e+00  7.0710678118654746e-01  1.8000000000000000e+02
                         7.0710678118654746e-01  0.0000000000000000e+00  0.0000000000000000e+00  0.0000000000000000e+00  0.0000000000000000e+00  0.0000000000000000e+00  7.0710678118654746e-01  0.0000000000000000e+00
                         0.0000000000000000e+00  0.0000000000000000e+00  7.0710678118654746e-01  1.8000000000000000e+02  7.0710678118654746e-01  0.0000000000000000e+00  0.0000000000000000e+00  0.0000000000000000e+00
2.358000000000000e+00  0.0000000000000000e+00  0.0000000000000000e+00  7.0710678118654746e-01  0.0000000000000000e+00  7.0710678118654746e-01  0.0000000000000000e+00  0.0000000000000000e+00  0.0000000000000000e+00
                         7.0710678118654746e-01  0.0000000000000000e+00  0.0000000000000000e+00  0.0000000000000000e+00  0.0000000000000000e+00  0.0000000000000000e+00  7.0710678118654746e-01  1.8000000000000000e+02
                         7.0710678118654746e-01  0.0000000000000000e+00  0.0000000000000000e+00  0.0000000000000000e+00  0.0000000000000000e+00  0.0000000000000000e+00  7.0710678118654746e-01  0.0000000000000000e+00
                         0.0000000000000000e+00  0.0000000000000000e+00  7.0710678118654746e-01  1.8000000000000000e+02  7.0710678118654746e-01  0.0000000000000000e+00  0.0000000000000000e+00  0.0000000000000000e+00
2.359000000000000e+00  0.0000000000000000e+00  0.0000000000000000e+00  7.0710678118654746e-01  0.0000000000000000e+00  7.0710678118654746e-01  0.0000000000000000e+00  0.0000000000000000e+00  0.0000000000000000e+00
                         7.0710678118654746e-01  0.0000000000000000e+00  0.0000000000000000e+00  0.0000000000000000e+00  0.0000000000000000e+00  0.0000000000000000e+00  7.0710678118654746e-01  1.8000000000000000e+02
                         7.0710678118654746e-01  0.0000000000000000e+00  0.0000000000000000e+00  0.0000000000000000e+00  0.0000000000000000e+00  0.0000000000000000e+00  7.0710678118654746e-01  0.0000000000000000e+00
                         0.0000000000000000e+00  0.0000000000000000e+00  7.0710678118654746e-01  1.8000000000000000e+02  7.0710678118654746e-01  0.0000000000000000e+00  0.0000000000000000e+00  0.0000000000000000e+00
2.360000000000000e+00  0.0000000000000000e+00  0.0000000000000000e+00  7.0710678118654746e-01  0.0000000000000000e+00  7.0710678118654746e-01  0.0000000000000000e+00  0.0000000000000000e+00  0.0000000000000000e+00
                         7.0710678118654746e-01  0.0000000000000000e+00  0.0000000000000000e+00  0.0000000000000000e+00  0.0000000000000000e+00  0.0000000000000000e+00  7.0710678118654746e-01  1.8000000000000000e+02
                         7.0710678118654746e-01  0.0000000000000000e+00  0.0000000000000000e+00  0.0000000000000000e+00  0.0000000000000000e+00  0.0000000000000000e+00  7.0710678118654746e-01  0.0000000000000000e+00
                         0.0000000000000000e+00  0.0000000000000000e+00  7.0710678118654746e-01  1.8000000000000000e+02  7.0710678118654746e-01  0.0000000000000000e+00  0.0000000000000000e+00  0.0000000000000000e+00
2.361000000000000e+00  0.0000000000000000e+00  0.0000000000000000e+00  7.0710678118654746e-01  0.0000000000000000e+00  7.0710678118654746e-01  0.0000000000000000e+00  0.0000000000000000e+00  0.0000000000000000e+00
                         7.0710678118654746e-01  0.0000000000000000e+00  0.0000000000000000e+00  0.0000000000000000e+00  0.0000000000000000e+00  0.0000000000000000e+00  7.0710678118654746e-01  1.8000000000000000e+02
                         7.0710678118654746e-01  0.0000000000000000e+00  0.0000000000000000e+00  0.0000000000000000e+00  0.0000000000000000e+00  0.0000000000000000e+00  7.0710678118654746e-01  0.0000000000000000e+00
                         0.0000000000000000e+00  0.0000000000000000e+00  7.0710678118654746e-01  1.8000000000000000e+02  7.0710678118654746e-01  0.0000000000000000e+00  0.0000000000000000e+00  0.0000000000000000e+00
2.362000000000000e+00  0.0000000000000000e+00  0.0000000000000000e+00  7.0710678118654746e-01  0.0000000000000000e+00  7.0710678118654746e-01  0.0000000000000000e+00  0.0000000000000000e+00  0.0000000000000000e+00
                         7.0710678118654746e-01  0.0000000000000000e+00  0.0000000000000000e+00  0.0000000000000000e+00  0.0000000000000000e+00  0.0000000000000000e+00  7.0710678118654746e-01  1.8000000000000000e+02
                         7.0710678118654746e-01  0.0000000000000000e+00  0.0000000000000000e+00  0.0000000000000000e+00  0.0000000000000000e+00  0.0000000000000000e+00  7.0710678118654746e-01  0.0000000000000000e+00
                         0.0000000000000000e+00  0.0000000000000000e+00  7.0710678118654746e-01  1.8000000000000000e+02  7.0710678118654746e-01  0.0000000000000000e+00  0.0000000000000000e+00  0.0000000000000000e+00
2.363000000000000e+00  0.0000000000000000e+00  0.0000000000000000e+00  7.0710678118654746e-01  0.0000000000000000e+00  7.0710678118654746e-01  0.0000000000000000e+00  0.0000000000000000e+00  0.0000000000000000e+00
                         7.0710678118654746e-01  0.0000000000000000e+00  0.0000000000000000e+00  0.0000000000000000e+00  0.0000000000000000e+00  0.0000000000000000e+00  7.0710678118654746e-01  1.8000000000000000e+02
                         7.0710678118654746e-01  0.0000000000000000e+00  0.0000000000000000e+00  0.0000000000000000e+00  0.0000000000000000e+00  0.0000000000000000e+00  7.0710678118654746e-01  0.0000000000000000e+00
                         0.0000000000000000e+00  0.0000000000000000e+00  7.0710678118654746e-01  1.8000000000000000e+02  7.0710678118654746e-01  0.0000000000000000e+00  0.0000000000000000e+00  0.0000000000000000e+00
2.364000000000000e+00  0.0000000000000000e+00  0.0000000000000000e+00  7.0710678118654746e-01  0.0000000000000000e+00  7.0710678118654746e-01  0.0000000000000000e+00  0.0000000000000000e+00  0.0000000000000000e+00
                         7.0710678118654746e-01  0.0000000000000000e+00  0.0000000000000000e+00  0.0000000000000000e+00  0.0000000000000000e+00  0.0000000000000000e+00  7.0710678118654746e-01  1.8000000000000000e+02
                         7.0710678118654746e-01  0.0000000000000000e+00  0.0000000000000000e+00  0.0000000000000000e+00  0.0000000000000000e+00  0.0000000000000000e+00  7.0710678118654746e-01  0.0000000000000000e+00
                         0.0000000000000000e+00  0.0000000000000000e+00  7.0710678118654746e-01  1.8000000000000000e+02  7.0710678118654746e-01  0.0000000000000000e+00  0.0000000000000000e+00  0.0000000000000000e+00
2.365000000000000e+00  0.0000000000000000e+00  0.0000000000000000e+00  7.0710678118654746e-01  0.0000000000000000e+00  7.0710678118654746e-01  0.0000000000000000e+00  0.0000000000000000e+00  0.0000000000000000e+00
                         7.0710678118654746e-01  0.0000000000000000e+00  0.0000000000000000e+00  0.0000000000000000e+00  0.0000000000000000e+00  0.0000000000000000e+00  7.0710678118654746e-01  1.8000000000000000e+02
                         7.0710678118654746e-01  0.0000000000000000e+00  0.0000000000000000e+00  0.0000000000000000e+00  0.0000000000000000e+00  0.0000000000000000e+00  7.0710678118654746e-01  0.0000000000000000e+00
                         0.0000000000000000e+00  0.0000000000000000e+00  7.0710678118654746e-01  1.8000000000000000e+02  7.0710678118654746e-01  0.0000000000000000e+00  0.0000000000000000e+00  0.0000000000000000e+00
2.366000000000000e+00  0.0000000000000000e+00  0.0000000000000000e+00  7.0710678118654746e-01  0.0000000000000000e+00  7.0710678118654746e-01  0.0000000000000000e+00  0.0000000000000000e+00  0.0000000000000000e+00
                         7.0710678118654746e-01  0.0000000000000000e+00  0.0000000000000000e+00  0.0000000000000000e+00  0.0000000000000000e+00  0.0000000000000000e+00  7.0710678118654746e-01  1.8000000000000000e+02
                         7.0710678118654746e-01  0.0000000000000000e+00  0.0000000000000000e+00  0.0000000000000000e+00  0.0000000000000000e+00  0.0000000000000000e+00  7.0710678118654746e-01  0.0000000000000000e+00
                         0.0000000000000000e+00  0.0000000000000000e+00  7.0710678118654746e-01  1.8000000000000000e+02  7.0710678118654746e-01  0.0000000000000000e+00  0.0000000000000000e+00  0.0000000000000000e+00
2.367000000000000e+00  0.0000000000000000e+00  0.0000000000000000e+00  7.0710678118654746e-01  0.0000000000000000e+00  7.0710678118654746e-01  0.0000000000000000e+00  0.0000000000000000e+00  0.0000000000000000e+00
                         7.0710678118654746e-01  0.0000000000000000e+00  0.0000000000000000e+00  0.0000000000000000e+00  0.0000000000000000e+00  0.0000000000000000e+00  7.0710678118654746e-01  1.8000000000000000e+02
                         7.0710678118654746e-01  0.0000000000000000e+00  0.0000000000000000e+00  0.0000000000000000e+00  0.0000000000000000e+00  0.0000000000000000e+00  7.0710678118654746e-01  0.0000000000000000e+00
                         0.0000000000000000e+00  0.0000000000000000e+00  7.0710678118654746e-01  1.8000000000000000e+02  7.0710678118654746e-01  0.0000000000000000e+00  0.0000000000000000e+00  0.0000000000000000e+00
2.368000000000000e+00  0.0000000000000000e+00  0.0000000000000000e+00  7.0710678118654746e-01  0.0000000000000000e+00  7.0710678118654746e-01  0.0000000000000000e+00  0.0000000000000000e+00  0.0000000000000000e+00
                         7.0710678118654746e-01  0.0000000000000000e+00  0.0000000000000000e+00  0.0000000000000000e+00  0.0000000000000000e+00  0.0000000000000000e+00  7.0710678118654746e-01  1.8000000000000000e+02
                         7.0710678118654746e-01  0.0000000000000000e+00  0.0000000000000000e+00  0.0000000000000000e+00  0.0000000000000000e+00  0.0000000000000000e+00  7.0710678118654746e-01  0.0000000000000000e+00
                         0.0000000000000000e+00  0.0000000000000000e+00  7.0710678118654746e-01  1.8000000000000000e+02  7.0710678118654746e-01  0.0000000000000000e+00  0.0000000000000000e+00  0.0000000000000000e+00
2.369000000000000e+00  0.0000000000000000e+00  0.0000000000000000e+00  7.0710678118654746e-01  0.0000000000000000e+00  7.0710678118654746e-01  0.0000000000000000e+00  0.0000000000000000e+00  0.0000000000000000e+00
                         7.0710678118654746e-01  0.0000000000000000e+00  0.0000000000000000e+00  0.0000000000000000e+00  0.0000000000000000e+00  0.0000000000000000e+00  7.0710678118654746e-01  1.8000000000000000e+02
                         7.0710678118654746e-01  0.0000000000000000e+00  0.0000000000000000e+00  0.0000000000000000e+00  0.0000000000000000e+00  0.0000000000000000e+00  7.0710678118654746e-01  0.0000000000000000e+00
                         0.0000000000000000e+00  0.0000000000000000e+00  7.0710678118654746e-01  1.8000000000000000e+02  7.0710678118654746e-01  0.0000000000000000e+00  0.0000000000000000e+00  0.0000000000000000e+00
2.370000000000000e+00  0.0000000000000000e+00  0.0000000000000000e+00  7.0710678118654746e-01  0.0000000000000000e+00  7.0710678118654746e-01  0.0000000000000000e+00  0.0000000000000000e+00  0.0000000000000000e+00
                         7.0710678118654746e-01  0.0000000000000000e+00  0.0000000000000000e+00  0.0000000000000000e+00  0.0000000000000000e+00  0.0000000000000000e+00  7.0710678118654746e-01  1.8000000000000000e+02
                         7.0710678118654746e-01  0.0000000000000000e+00  0.0000000000000000e+00  0.0000000000000000e+00  0.0000000000000000e+00  0.0000000000000000e+00  7.0710678118654746e-01  0.0000000000000000e+00
                         0.0000000000000000e+00  0.0000000000000000e+00  7.0710678118654746e-01  1.8000000000000000e+02  7.0710678118654746e-01  0.0000000000000000e+00  0.0000000000000000e+00  0.0000000000000000e+00
2.371000000000000e+00  0.0000000000000000e+00  0.0000000000000000e+00  7.0710678118654746e-01  0.0000000000000000e+00  7.0710678118654746e-01  0.0000000000000000e+00  0.0000000000000000e+00  0.0000000000000000e+00
                         7.0710678118654746e-01  0.0000000000000000e+00  0.0000000000000000e+00  0.0000000000000000e+00  0.0000000000000000e+00  0.0000000000000000e+00  7.0710678118654746e-01  1.8000000000000000e+02
                         7.0710678118654746e-01  0.0000000000000000e+00  0.0000000000000000e+00  0.0000000000000000e+00  0.0000000000000000e+00  0.0000000000000000e+00  7.0710678118654746e-01  0.0000000000000000e+00
                         0.0000000000000000e+00  0.0000000000000000e+00  7.0710678118654746e-01  1.8000000000000000e+02  7.0710678118654746e-01  0.0000000000000000e+00  0.0000000000000000e+00  0.0000000000000000e+00
2.372000000000000e+00  0.0000000000000000e+00  0.0000000000000000e+00  7.0710678118654746e-01  0.0000000000000000e+00  7.0710678118654746e-01  0.0000000000000000e+00  0.0000000000000000e+00  0.0000000000000000e+00
                         7.0710678118654746e-01  0.0000000000000000e+00  0.0000000000000000e+00  0.0000000000000000e+00  0.0000000000000000e+00  0.0000000000000000e+00  7.0710678118654746e-01  1.8000000000000000e+02
                         7.0710678118654746e-01  0.0000000000000000e+00  0.0000000000000000e+00  0.0000000000000000e+00  0.0000000000000000e+00  0.0000000000000000e+00  7.0710678118654746e-01  0.0000000000000000e+00
                         0.0000000000000000e+00  0.0000000000000000e+00  7.0710678118654746e-01  1.8000000000000000e+02  7.0710678118654746e-01  0.0000000000000000e+00  0.0000000000000000e+00  0.0000000000000000e+00
2.373000000000000e+00  0.0000000000000000e+00  0.0000000000000000e+00  7.0710678118654746e-01  0.0000000000000000e+00  7.0710678118654746e-01  0.0000000000000000e+00  0.0000000000000000e+00  0.0000000000000000e+00
                         7.0710678118654746e-01  0.0000000000000000e+00  0.0000000000000000e+00  0.0000000000000000e+00  0.0000000000000000e+00  0.0000000000000000e+00  7.0710678118654746e-01  1.8000000000000000e+02
                         7.0710678118654746e-01  0.0000000000000000e+00  0.0000000000000000e+00  0.0000000000000000e+00  0.0000000000000000e+00  0.0000000000000000e+00  7.0710678118654746e-01  0.0000000000000000e+00
                         0.0000000000000000e+00  0.0000000000000000e+00  7.0710678118654746e-01  1.8000000000000000e+02  7.0710678118654746e-01  0.0000000000000000e+00  0.0000000000000000e+00  0.0000000000000000e+00
2.374000000000000e+00  0.0000000000000000e+00  0.0000000000000000e+00  7.0710678118654746e-01  0.0000000000000000e+00  7.0710678118654746e-01  0.0000000000000000e+00  0.0000000000000000e+00  0.0000000000000000e+00
                         7.0710678118654746e-01  0.0000000000000000e+00  0.0000000000000000e+00  0.0000000000000000e+00  0.0000000000000000e+00  0.0000000000000000e+00  7.0710678118654746e-01  1.8000000000000000e+02
                         7.0710678118654746e-01  0.0000000000000000e+00  0.0000000000000000e+00  0.0000000000000000e+00  0.0000000000000000e+00  0.0000000000000000e+00  7.0710678118654746e-01  0.0000000000000000e+00
                         0.0000000000000000e+00  0.0000000000000000e+00  7.0710678118654746e-01  1.8000000000000000e+02  7.0710678118654746e-01  0.0000000000000000e+00  0.0000000000000000e+00  0.0000000000000000e+00
2.375000000000000e+00  0.0000000000000000e+00  0.0000000000000000e+00  7.0710678118654746e-01  0.0000000000000000e+00  7.0710678118654746e-01  0.0000000000000000e+00  0.0000000000000000e+00  0.0000000000000000e+00
                         7.0710678118654746e-01  0.0000000000000000e+00  0.0000000000000000e+00  0.0000000000000000e+00  0.0000000000000000e+00  0.0000000000000000e+00  7.0710678118654746e-01  1.8000000000000000e+02
                         7.0710678118654746e-01  0.0000000000000000e+00  0.0000000000000000e+00  0.0000000000000000e+00  0.0000000000000000e+00  0.0000000000000000e+00  7.0710678118654746e-01  0.0000000000000000e+00
                         0.0000000000000000e+00  0.0000000000000000e+00  7.0710678118654746e-01  1.8000000000000000e+02  7.0710678118654746e-01  0.0000000000000000e+00  0.0000000000000000e+00  0.0000000000000000e+00
2.376000000000000e+00  0.0000000000000000e+00  0.0000000000000000e+00  7.0710678118654746e-01  0.0000000000000000e+00  7.0710678118654746e-01  0.0000000000000000e+00  0.0000000000000000e+00  0.0000000000000000e+00
                         7.0710678118654746e-01  0.0000000000000000e+00  0.0000000000000000e+00  0.0000000000000000e+00  0.0000000000000000e+00  0.0000000000000000e+00  7.0710678118654746e-01  1.8000000000000000e+02
                         7.0710678118654746e-01  0.0000000000000000e+00  0.0000000000000000e+00  0.0000000000000000e+00  0.0000000000000000e+00  0.0000000000000000e+00  7.0710678118654746e-01  0.0000000000000000e+00
                         0.0000000000000000e+00  0.0000000000000000e+00  7.0710678118654746e-01  1.8000000000000000e+02  7.0710678118654746e-01  0.0000000000000000e+00  0.0000000000000000e+00  0.0000000000000000e+00
2.377000000000000e+00  0.0000000000000000e+00  0.0000000000000000e+00  7.0710678118654746e-01  0.0000000000000000e+00  7.0710678118654746e-01  0.0000000000000000e+00  0.0000000000000000e+00  0.0000000000000000e+00
                         7.0710678118654746e-01  0.0000000000000000e+00  0.0000000000000000e+00  0.0000000000000000e+00  0.0000000000000000e+00  0.0000000000000000e+00  7.0710678118654746e-01  1.8000000000000000e+02
                         7.0710678118654746e-01  0.0000000000000000e+00  0.0000000000000000e+00  0.0000000000000000e+00  0.0000000000000000e+00  0.0000000000000000e+00  7.0710678118654746e-01  0.0000000000000000e+00
                         0.0000000000000000e+00  0.0000000000000000e+00  7.0710678118654746e-01  1.8000000000000000e+02  7.0710678118654746e-01  0.0000000000000000e+00  0.0000000000000000e+00  0.0000000000000000e+00
2.378000000000000e+00  0.0000000000000000e+00  0.0000000000000000e+00  7.0710678118654746e-01  0.0000000000000000e+00  7.0710678118654746e-01  0.0000000000000000e+00  0.0000000000000000e+00  0.0000000000000000e+00
                         7.0710678118654746e-01  0.0000000000000000e+00  0.0000000000000000e+00  0.0000000000000000e+00  0.0000000000000000e+00  0.0000000000000000e+00  7.0710678118654746e-01  1.8000000000000000e+02
                         7.0710678118654746e-01  0.0000000000000000e+00  0.0000000000000000e+00  0.0000000000000000e+00  0.0000000000000000e+00  0.0000000000000000e+00  7.0710678118654746e-01  0.0000000000000000e+00
                         0.0000000000000000e+00  0.0000000000000000e+00  7.0710678118654746e-01  1.8000000000000000e+02  7.0710678118654746e-01  0.0000000000000000e+00  0.0000000000000000e+00  0.0000000000000000e+00
2.379000000000000e+00  0.0000000000000000e+00  0.0000000000000000e+00  7.0710678118654746e-01  0.0000000000000000e+00  7.0710678118654746e-01  0.0000000000000000e+00  0.0000000000000000e+00  0.0000000000000000e+00
                         7.0710678118654746e-01  0.0000000000000000e+00  0.0000000000000000e+00  0.0000000000000000e+00  0.0000000000000000e+00  0.0000000000000000e+00  7.0710678118654746e-01  1.8000000000000000e+02
                         7.0710678118654746e-01  0.0000000000000000e+00  0.0000000000000000e+00  0.0000000000000000e+00  0.0000000000000000e+00  0.0000000000000000e+00  7.0710678118654746e-01  0.0000000000000000e+00
                         0.0000000000000000e+00  0.0000000000000000e+00  7.0710678118654746e-01  1.8000000000000000e+02  7.0710678118654746e-01  0.0000000000000000e+00  0.0000000000000000e+00  0.0000000000000000e+00
2.380000000000000e+00  0.0000000000000000e+00  0.0000000000000000e+00  7.0710678118654746e-01  0.0000000000000000e+00  7.0710678118654746e-01  0.0000000000000000e+00  0.0000000000000000e+00  0.0000000000000000e+00
                         7.0710678118654746e-01  0.0000000000000000e+00  0.0000000000000000e+00  0.0000000000000000e+00  0.0000000000000000e+00  0.0000000000000000e+00  7.0710678118654746e-01  1.8000000000000000e+02
                         7.0710678118654746e-01  0.0000000000000000e+00  0.0000000000000000e+00  0.0000000000000000e+00  0.0000000000000000e+00  0.0000000000000000e+00  7.0710678118654746e-01  0.0000000000000000e+00
                         0.0000000000000000e+00  0.0000000000000000e+00  7.0710678118654746e-01  1.8000000000000000e+02  7.0710678118654746e-01  0.0000000000000000e+00  0.0000000000000000e+00  0.0000000000000000e+00
2.381000000000000e+00  0.0000000000000000e+00  0.0000000000000000e+00  7.0710678118654746e-01  0.0000000000000000e+00  7.0710678118654746e-01  0.0000000000000000e+00  0.0000000000000000e+00  0.0000000000000000e+00
                         7.0710678118654746e-01  0.0000000000000000e+00  0.0000000000000000e+00  0.0000000000000000e+00  0.0000000000000000e+00  0.0000000000000000e+00  7.0710678118654746e-01  1.8000000000000000e+02
                         7.0710678118654746e-01  0.0000000000000000e+00  0.0000000000000000e+00  0.0000000000000000e+00  0.0000000000000000e+00  0.0000000000000000e+00  7.0710678118654746e-01  0.0000000000000000e+00
                         0.0000000000000000e+00  0.0000000000000000e+00  7.0710678118654746e-01  1.8000000000000000e+02  7.0710678118654746e-01  0.0000000000000000e+00  0.0000000000000000e+00  0.0000000000000000e+00
2.382000000000000e+00  0.0000000000000000e+00  0.0000000000000000e+00  7.0710678118654746e-01  0.0000000000000000e+00  7.0710678118654746e-01  0.0000000000000000e+00  0.0000000000000000e+00  0.0000000000000000e+00
                         7.0710678118654746e-01  0.0000000000000000e+00  0.0000000000000000e+00  0.0000000000000000e+00  0.0000000000000000e+00  0.0000000000000000e+00  7.0710678118654746e-01  1.8000000000000000e+02
                         7.0710678118654746e-01  0.0000000000000000e+00  0.0000000000000000e+00  0.0000000000000000e+00  0.0000000000000000e+00  0.0000000000000000e+00  7.0710678118654746e-01  0.0000000000000000e+00
                         0.0000000000000000e+00  0.0000000000000000e+00  7.0710678118654746e-01  1.8000000000000000e+02  7.0710678118654746e-01  0.0000000000000000e+00  0.0000000000000000e+00  0.0000000000000000e+00
2.383000000000000e+00  0.0000000000000000e+00  0.0000000000000000e+00  7.0710678118654746e-01  0.0000000000000000e+00  7.0710678118654746e-01  0.0000000000000000e+00  0.0000000000000000e+00  0.0000000000000000e+00
                         7.0710678118654746e-01  0.0000000000000000e+00  0.0000000000000000e+00  0.0000000000000000e+00  0.0000000000000000e+00  0.0000000000000000e+00  7.0710678118654746e-01  1.8000000000000000e+02
                         7.0710678118654746e-01  0.0000000000000000e+00  0.0000000000000000e+00  0.0000000000000000e+00  0.0000000000000000e+00  0.0000000000000000e+00  7.0710678118654746e-01  0.0000000000000000e+00
                         0.0000000000000000e+00  0.0000000000000000e+00  7.0710678118654746e-01  1.8000000000000000e+02  7.0710678118654746e-01  0.0000000000000000e+00  0.0000000000000000e+00  0.0000000000000000e+00
2.384000000000000e+00  0.0000000000000000e+00  0.0000000000000000e+00  7.0710678118654746e-01  0.0000000000000000e+00  7.0710678118654746e-01  0.0000000000000000e+00  0.0000000000000000e+00  0.0000000000000000e+00
                         7.0710678118654746e-01  0.0000000000000000e+00  0.0000000000000000e+00  0.0000000000000000e+00  0.0000000000000000e+00  0.0000000000000000e+00  7.0710678118654746e-01  1.8000000000000000e+02
                         7.0710678118654746e-01  0.0000000000000000e+00  0.0000000000000000e+00  0.0000000000000000e+00  0.0000000000000000e+00  0.0000000000000000e+00  7.0710678118654746e-01  0.0000000000000000e+00
                         0.0000000000000000e+00  0.0000000000000000e+00  7.0710678118654746e-01  1.8000000000000000e+02  7.0710678118654746e-01  0.0000000000000000e+00  0.0000000000000000e+00  0.0000000000000000e+00
2.385000000000000e+00  0.0000000000000000e+00  0.0000000000000000e+00  7.0710678118654746e-01  0.0000000000000000e+00  7.0710678118654746e-01  0.0000000000000000e+00  0.0000000000000000e+00  0.0000000000000000e+00
                         7.0710678118654746e-01  0.0000000000000000e+00  0.0000000000000000e+00  0.0000000000000000e+00  0.0000000000000000e+00  0.0000000000000000e+00  7.0710678118654746e-01  1.8000000000000000e+02
                         7.0710678118654746e-01  0.0000000000000000e+00  0.0000000000000000e+00  0.0000000000000000e+00  0.0000000000000000e+00  0.0000000000000000e+00  7.0710678118654746e-01  0.0000000000000000e+00
                         0.0000000000000000e+00  0.0000000000000000e+00  7.0710678118654746e-01  1.8000000000000000e+02  7.0710678118654746e-01  0.0000000000000000e+00  0.0000000000000000e+00  0.0000000000000000e+00
2.386000000000000e+00  0.0000000000000000e+00  0.0000000000000000e+00  7.0710678118654746e-01  0.0000000000000000e+00  7.0710678118654746e-01  0.0000000000000000e+00  0.0000000000000000e+00  0.0000000000000000e+00
                         7.0710678118654746e-01  0.0000000000000000e+00  0.0000000000000000e+00  0.0000000000000000e+00  0.0000000000000000e+00  0.0000000000000000e+00  7.0710678118654746e-01  1.8000000000000000e+02
                         7.0710678118654746e-01  0.0000000000000000e+00  0.0000000000000000e+00  0.0000000000000000e+00  0.0000000000000000e+00  0.0000000000000000e+00  7.0710678118654746e-01  0.0000000000000000e+00
                         0.0000000000000000e+00  0.0000000000000000e+00  7.0710678118654746e-01  1.8000000000000000e+02  7.0710678118654746e-01  0.0000000000000000e+00  0.0000000000000000e+00  0.0000000000000000e+00
2.387000000000000e+00  0.0000000000000000e+00  0.0000000000000000e+00  7.0710678118654746e-01  0.0000000000000000e+00  7.0710678118654746e-01  0.0000000000000000e+00  0.0000000000000000e+00  0.0000000000000000e+00
                         7.0710678118654746e-01  0.0000000000000000e+00  0.0000000000000000e+00  0.0000000000000000e+00  0.0000000000000000e+00  0.0000000000000000e+00  7.0710678118654746e-01  1.8000000000000000e+02
                         7.0710678118654746e-01  0.0000000000000000e+00  0.0000000000000000e+00  0.0000000000000000e+00  0.0000000000000000e+00  0.0000000000000000e+00  7.0710678118654746e-01  0.0000000000000000e+00
                         0.0000000000000000e+00  0.0000000000000000e+00  7.0710678118654746e-01  1.8000000000000000e+02  7.0710678118654746e-01  0.0000000000000000e+00  0.0000000000000000e+00  0.0000000000000000e+00
2.388000000000000e+00  0.0000000000000000e+00  0.0000000000000000e+00  7.0710678118654746e-01  0.0000000000000000e+00  7.0710678118654746e-01  0.0000000000000000e+00  0.0000000000000000e+00  0.0000000000000000e+00
                         7.0710678118654746e-01  0.0000000000000000e+00  0.0000000000000000e+00  0.0000000000000000e+00  0.0000000000000000e+00  0.0000000000000000e+00  7.0710678118654746e-01  1.8000000000000000e+02
                         7.0710678118654746e-01  0.0000000000000000e+00  0.0000000000000000e+00  0.0000000000000000e+00  0.0000000000000000e+00  0.0000000000000000e+00  7.0710678118654746e-01  0.0000000000000000e+00
                         0.0000000000000000e+00  0.0000000000000000e+00  7.0710678118654746e-01  1.8000000000000000e+02  7.0710678118654746e-01  0.0000000000000000e+00  0.0000000000000000e+00  0.0000000000000000e+00
2.389000000000000e+00  0.0000000000000000e+00  0.0000000000000000e+00  7.0710678118654746e-01  0.0000000000000000e+00  7.0710678118654746e-01  0.0000000000000000e+00  0.0000000000000000e+00  0.0000000000000000e+00
                         7.0710678118654746e-01  0.0000000000000000e+00  0.0000000000000000e+00  0.0000000000000000e+00  0.0000000000000000e+00  0.0000000000000000e+00  7.0710678118654746e-01  1.8000000000000000e+02
                         7.0710678118654746e-01  0.0000000000000000e+00  0.0000000000000000e+00  0.0000000000000000e+00  0.0000000000000000e+00  0.0000000000000000e+00  7.0710678118654746e-01  0.0000000000000000e+00
                         0.0000000000000000e+00  0.0000000000000000e+00  7.0710678118654746e-01  1.8000000000000000e+02  7.0710678118654746e-01  0.0000000000000000e+00  0.0000000000000000e+00  0.0000000000000000e+00
2.390000000000000e+00  0.0000000000000000e+00  0.0000000000000000e+00  7.0710678118654746e-01  0.0000000000000000e+00  7.0710678118654746e-01  0.0000000000000000e+00  0.0000000000000000e+00  0.0000000000000000e+00
                         7.0710678118654746e-01  0.0000000000000000e+00  0.0000000000000000e+00  0.0000000000000000e+00  0.0000000000000000e+00  0.0000000000000000e+00  7.0710678118654746e-01  1.8000000000000000e+02
                         7.0710678118654746e-01  0.0000000000000000e+00  0.0000000000000000e+00  0.0000000000000000e+00  0.0000000000000000e+00  0.0000000000000000e+00  7.0710678118654746e-01  0.0000000000000000e+00
                         0.0000000000000000e+00  0.0000000000000000e+00  7.0710678118654746e-01  1.8000000000000000e+02  7.0710678118654746e-01  0.0000000000000000e+00  0.0000000000000000e+00  0.0000000000000000e+00
2.391000000000000e+00  0.0000000000000000e+00  0.0000000000000000e+00  7.0710678118654746e-01  0.0000000000000000e+00  7.0710678118654746e-01  0.0000000000000000e+00  0.0000000000000000e+00  0.0000000000000000e+00
                         7.0710678118654746e-01  0.0000000000000000e+00  0.0000000000000000e+00  0.0000000000000000e+00  0.0000000000000000e+00  0.0000000000000000e+00  7.0710678118654746e-01  1.8000000000000000e+02
                         7.0710678118654746e-01  0.0000000000000000e+00  0.0000000000000000e+00  0.0000000000000000e+00  0.0000000000000000e+00  0.0000000000000000e+00  7.0710678118654746e-01  0.0000000000000000e+00
                         0.0000000000000000e+00  0.0000000000000000e+00  7.0710678118654746e-01  1.8000000000000000e+02  7.0710678118654746e-01  0.0000000000000000e+00  0.0000000000000000e+00  0.0000000000000000e+00
2.392000000000000e+00  0.0000000000000000e+00  0.0000000000000000e+00  7.0710678118654746e-01  0.0000000000000000e+00  7.0710678118654746e-01  0.0000000000000000e+00  0.0000000000000000e+00  0.0000000000000000e+00
                         7.0710678118654746e-01  0.0000000000000000e+00  0.0000000000000000e+00  0.0000000000000000e+00  0.0000000000000000e+00  0.0000000000000000e+00  7.0710678118654746e-01  1.8000000000000000e+02
                         7.0710678118654746e-01  0.0000000000000000e+00  0.0000000000000000e+00  0.0000000000000000e+00  0.0000000000000000e+00  0.0000000000000000e+00  7.0710678118654746e-01  0.0000000000000000e+00
                         0.0000000000000000e+00  0.0000000000000000e+00  7.0710678118654746e-01  1.8000000000000000e+02  7.0710678118654746e-01  0.0000000000000000e+00  0.0000000000000000e+00  0.0000000000000000e+00
2.393000000000000e+00  0.0000000000000000e+00  0.0000000000000000e+00  7.0710678118654746e-01  0.0000000000000000e+00  7.0710678118654746e-01  0.0000000000000000e+00  0.0000000000000000e+00  0.0000000000000000e+00
                         7.0710678118654746e-01  0.0000000000000000e+00  0.0000000000000000e+00  0.0000000000000000e+00  0.0000000000000000e+00  0.0000000000000000e+00  7.0710678118654746e-01  1.8000000000000000e+02
                         7.0710678118654746e-01  0.0000000000000000e+00  0.0000000000000000e+00  0.0000000000000000e+00  0.0000000000000000e+00  0.0000000000000000e+00  7.0710678118654746e-01  0.0000000000000000e+00
                         0.0000000000000000e+00  0.0000000000000000e+00  7.0710678118654746e-01  1.8000000000000000e+02  7.0710678118654746e-01  0.0000000000000000e+00  0.0000000000000000e+00  0.0000000000000000e+00
2.394000000000000e+00  0.0000000000000000e+00  0.0000000000000000e+00  7.0710678118654746e-01  0.0000000000000000e+00  7.0710678118654746e-01  0.0000000000000000e+00  0.0000000000000000e+00  0.0000000000000000e+00
                         7.0710678118654746e-01  0.0000000000000000e+00  0.0000000000000000e+00  0.0000000000000000e+00  0.0000000000000000e+00  0.0000000000000000e+00  7.0710678118654746e-01  1.8000000000000000e+02
                         7.0710678118654746e-01  0.0000000000000000e+00  0.0000000000000000e+00  0.0000000000000000e+00  0.0000000000000000e+00  0.0000000000000000e+00  7.0710678118654746e-01  0.0000000000000000e+00
                         0.0000000000000000e+00  0.0000000000000000e+00  7.0710678118654746e-01  1.8000000000000000e+02  7.0710678118654746e-01  0.0000000000000000e+00  0.0000000000000000e+00  0.0000000000000000e+00
2.395000000000000e+00  0.0000000000000000e+00  0.0000000000000000e+00  7.0710678118654746e-01  0.0000000000000000e+00  7.0710678118654746e-01  0.0000000000000000e+00  0.0000000000000000e+00  0.0000000000000000e+00
                         7.0710678118654746e-01  0.0000000000000000e+00  0.0000000000000000e+00  0.0000000000000000e+00  0.0000000000000000e+00  0.0000000000000000e+00  7.0710678118654746e-01  1.8000000000000000e+02
                         7.0710678118654746e-01  0.0000000000000000e+00  0.0000000000000000e+00  0.0000000000000000e+00  0.0000000000000000e+00  0.0000000000000000e+00  7.0710678118654746e-01  0.0000000000000000e+00
                         0.0000000000000000e+00  0.0000000000000000e+00  7.0710678118654746e-01  1.8000000000000000e+02  7.0710678118654746e-01  0.0000000000000000e+00  0.0000000000000000e+00  0.0000000000000000e+00
2.396000000000000e+00  0.0000000000000000e+00  0.0000000000000000e+00  7.0710678118654746e-01  0.0000000000000000e+00  7.0710678118654746e-01  0.0000000000000000e+00  0.0000000000000000e+00  0.0000000000000000e+00
                         7.0710678118654746e-01  0.0000000000000000e+00  0.0000000000000000e+00  0.0000000000000000e+00  0.0000000000000000e+00  0.0000000000000000e+00  7.0710678118654746e-01  1.8000000000000000e+02
                         7.0710678118654746e-01  0.0000000000000000e+00  0.0000000000000000e+00  0.0000000000000000e+00  0.0000000000000000e+00  0.0000000000000000e+00  7.0710678118654746e-01  0.0000000000000000e+00
                         0.0000000000000000e+00  0.0000000000000000e+00  7.0710678118654746e-01  1.8000000000000000e+02  7.0710678118654746e-01  0.0000000000000000e+00  0.0000000000000000e+00  0.0000000000000000e+00
2.397000000000000e+00  0.0000000000000000e+00  0.0000000000000000e+00  7.0710678118654746e-01  0.0000000000000000e+00  7.0710678118654746e-01  0.0000000000000000e+00  0.0000000000000000e+00  0.0000000000000000e+00
                         7.0710678118654746e-01  0.0000000000000000e+00  0.0000000000000000e+00  0.0000000000000000e+00  0.0000000000000000e+00  0.0000000000000000e+00  7.0710678118654746e-01  1.8000000000000000e+02
                         7.0710678118654746e-01  0.0000000000000000e+00  0.0000000000000000e+00  0.0000000000000000e+00  0.0000000000000000e+00  0.0000000000000000e+00  7.0710678118654746e-01  0.0000000000000000e+00
                         0.0000000000000000e+00  0.0000000000000000e+00  7.0710678118654746e-01  1.8000000000000000e+02  7.0710678118654746e-01  0.0000000000000000e+00  0.0000000000000000e+00  0.0000000000000000e+00
2.398000000000000e+00  0.0000000000000000e+00  0.0000000000000000e+00  7.0710678118654746e-01  0.0000000000000000e+00  7.0710678118654746e-01  0.0000000000000000e+00  0.0000000000000000e+00  0.0000000000000000e+00
                         7.0710678118654746e-01  0.0000000000000000e+00  0.0000000000000000e+00  0.0000000000000000e+00  0.0000000000000000e+00  0.0000000000000000e+00  7.0710678118654746e-01  1.8000000000000000e+02
                         7.0710678118654746e-01  0.0000000000000000e+00  0.0000000000000000e+00  0.0000000000000000e+00  0.0000000000000000e+00  0.0000000000000000e+00  7.0710678118654746e-01  0.0000000000000000e+00
                         0.0000000000000000e+00  0.0000000000000000e+00  7.0710678118654746e-01  1.8000000000000000e+02  7.0710678118654746e-01  0.0000000000000000e+00  0.0000000000000000e+00  0.0000000000000000e+00
2.399000000000000e+00  0.0000000000000000e+00  0.0000000000000000e+00  7.0710678118654746e-01  0.0000000000000000e+00  7.0710678118654746e-01  0.0000000000000000e+00  0.0000000000000000e+00  0.0000000000000000e+00
                         7.0710678118654746e-01  0.0000000000000000e+00  0.0000000000000000e+00  0.0000000000000000e+00  0.0000000000000000e+00  0.0000000000000000e+00  7.0710678118654746e-01  1.8000000000000000e+02
                         7.0710678118654746e-01  0.0000000000000000e+00  0.0000000000000000e+00  0.0000000000000000e+00  0.0000000000000000e+00  0.0000000000000000e+00  7.0710678118654746e-01  0.0000000000000000e+00
                         0.0000000000000000e+00  0.0000000000000000e+00  7.0710678118654746e-01  1.8000000000000000e+02  7.0710678118654746e-01  0.0000000000000000e+00  0.0000000000000000e+00  0.0000000000000000e+00
2.400000000000000e+00  0.0000000000000000e+00  0.0000000000000000e+00  7.0710678118654746e-01  0.0000000000000000e+00  7.0710678118654746e-01  0.0000000000000000e+00  0.0000000000000000e+00  0.0000000000000000e+00
                         7.0710678118654746e-01  0.0000000000000000e+00  0.0000000000000000e+00  0.0000000000000000e+00  0.0000000000000000e+00  0.0000000000000000e+00  7.0710678118654746e-01  1.8000000000000000e+02
                         7.0710678118654746e-01  0.0000000000000000e+00  0.0000000000000000e+00  0.0000000000000000e+00  0.0000000000000000e+00  0.0000000000000000e+00  7.0710678118654746e-01  0.0000000000000000e+00
                         0.0000000000000000e+00  0.0000000000000000e+00  7.0710678118654746e-01  1.8000000000000000e+02  7.0710678118654746e-01  0.0000000000000000e+00  0.0000000000000000e+00  0.0000000000000000e+00
2.401000000000000e+00  0.0000000000000000e+00  0.0000000000000000e+00  7.0710678118654746e-01  0.0000000000000000e+00  7.0710678118654746e-01  0.0000000000000000e+00  0.0000000000000000e+00  0.0000000000000000e+00
                         7.0710678118654746e-01  0.0000000000000000e+00  0.0000000000000000e+00  0.0000000000000000e+00  0.0000000000000000e+00  0.0000000000000000e+00  7.0710678118654746e-01  1.8000000000000000e+02
                         7.0710678118654746e-01  0.0000000000000000e+00  0.0000000000000000e+00  0.0000000000000000e+00  0.0000000000000000e+00  0.0000000000000000e+00  7.0710678118654746e-01  0.0000000000000000e+00
                         0.0000000000000000e+00  0.0000000000000000e+00  7.0710678118654746e-01  1.8000000000000000e+02  7.0710678118654746e-01  0.0000000000000000e+00  0.0000000000000000e+00  0.0000000000000000e+00
2.402000000000000e+00  0.0000000000000000e+00  0.0000000000000000e+00  7.0710678118654746e-01  0.0000000000000000e+00  7.0710678118654746e-01  0.0000000000000000e+00  0.0000000000000000e+00  0.0000000000000000e+00
                         7.0710678118654746e-01  0.0000000000000000e+00  0.0000000000000000e+00  0.0000000000000000e+00  0.0000000000000000e+00  0.0000000000000000e+00  7.0710678118654746e-01  1.8000000000000000e+02
                         7.0710678118654746e-01  0.0000000000000000e+00  0.0000000000000000e+00  0.0000000000000000e+00  0.0000000000000000e+00  0.0000000000000000e+00  7.0710678118654746e-01  0.0000000000000000e+00
                         0.0000000000000000e+00  0.0000000000000000e+00  7.0710678118654746e-01  1.8000000000000000e+02  7.0710678118654746e-01  0.0000000000000000e+00  0.0000000000000000e+00  0.0000000000000000e+00
2.403000000000000e+00  0.0000000000000000e+00  0.0000000000000000e+00  7.0710678118654746e-01  0.0000000000000000e+00  7.0710678118654746e-01  0.0000000000000000e+00  0.0000000000000000e+00  0.0000000000000000e+00
                         7.0710678118654746e-01  0.0000000000000000e+00  0.0000000000000000e+00  0.0000000000000000e+00  0.0000000000000000e+00  0.0000000000000000e+00  7.0710678118654746e-01  1.8000000000000000e+02
                         7.0710678118654746e-01  0.0000000000000000e+00  0.0000000000000000e+00  0.0000000000000000e+00  0.0000000000000000e+00  0.0000000000000000e+00  7.0710678118654746e-01  0.0000000000000000e+00
                         0.0000000000000000e+00  0.0000000000000000e+00  7.0710678118654746e-01  1.8000000000000000e+02  7.0710678118654746e-01  0.0000000000000000e+00  0.0000000000000000e+00  0.0000000000000000e+00
2.404000000000000e+00  0.0000000000000000e+00  0.0000000000000000e+00  7.0710678118654746e-01  0.0000000000000000e+00  7.0710678118654746e-01  0.0000000000000000e+00  0.0000000000000000e+00  0.0000000000000000e+00
                         7.0710678118654746e-01  0.0000000000000000e+00  0.0000000000000000e+00  0.0000000000000000e+00  0.0000000000000000e+00  0.0000000000000000e+00  7.0710678118654746e-01  1.8000000000000000e+02
                         7.0710678118654746e-01  0.0000000000000000e+00  0.0000000000000000e+00  0.0000000000000000e+00  0.0000000000000000e+00  0.0000000000000000e+00  7.0710678118654746e-01  0.0000000000000000e+00
                         0.0000000000000000e+00  0.0000000000000000e+00  7.0710678118654746e-01  1.8000000000000000e+02  7.0710678118654746e-01  0.0000000000000000e+00  0.0000000000000000e+00  0.0000000000000000e+00
2.405000000000000e+00  0.0000000000000000e+00  0.0000000000000000e+00  7.0710678118654746e-01  0.0000000000000000e+00  7.0710678118654746e-01  0.0000000000000000e+00  0.0000000000000000e+00  0.0000000000000000e+00
                         7.0710678118654746e-01  0.0000000000000000e+00  0.0000000000000000e+00  0.0000000000000000e+00  0.0000000000000000e+00  0.0000000000000000e+00  7.0710678118654746e-01  1.8000000000000000e+02
                         7.0710678118654746e-01  0.0000000000000000e+00  0.0000000000000000e+00  0.0000000000000000e+00  0.0000000000000000e+00  0.0000000000000000e+00  7.0710678118654746e-01  0.0000000000000000e+00
                         0.0000000000000000e+00  0.0000000000000000e+00  7.0710678118654746e-01  1.8000000000000000e+02  7.0710678118654746e-01  0.0000000000000000e+00  0.0000000000000000e+00  0.0000000000000000e+00
2.406000000000000e+00  0.0000000000000000e+00  0.0000000000000000e+00  7.0710678118654746e-01  0.0000000000000000e+00  7.0710678118654746e-01  0.0000000000000000e+00  0.0000000000000000e+00  0.0000000000000000e+00
                         7.0710678118654746e-01  0.0000000000000000e+00  0.0000000000000000e+00  0.0000000000000000e+00  0.0000000000000000e+00  0.0000000000000000e+00  7.0710678118654746e-01  1.8000000000000000e+02
                         7.0710678118654746e-01  0.0000000000000000e+00  0.0000000000000000e+00  0.0000000000000000e+00  0.0000000000000000e+00  0.0000000000000000e+00  7.0710678118654746e-01  0.0000000000000000e+00
                         0.0000000000000000e+00  0.0000000000000000e+00  7.0710678118654746e-01  1.8000000000000000e+02  7.0710678118654746e-01  0.0000000000000000e+00  0.0000000000000000e+00  0.0000000000000000e+00
2.407000000000000e+00  0.0000000000000000e+00  0.0000000000000000e+00  7.0710678118654746e-01  0.0000000000000000e+00  7.0710678118654746e-01  0.0000000000000000e+00  0.0000000000000000e+00  0.0000000000000000e+00
                         7.0710678118654746e-01  0.0000000000000000e+00  0.0000000000000000e+00  0.0000000000000000e+00  0.0000000000000000e+00  0.0000000000000000e+00  7.0710678118654746e-01  1.8000000000000000e+02
                         7.0710678118654746e-01  0.0000000000000000e+00  0.0000000000000000e+00  0.0000000000000000e+00  0.0000000000000000e+00  0.0000000000000000e+00  7.0710678118654746e-01  0.0000000000000000e+00
                         0.0000000000000000e+00  0.0000000000000000e+00  7.0710678118654746e-01  1.8000000000000000e+02  7.0710678118654746e-01  0.0000000000000000e+00  0.0000000000000000e+00  0.0000000000000000e+00
2.408000000000000e+00  0.0000000000000000e+00  0.0000000000000000e+00  7.0710678118654746e-01  0.0000000000000000e+00  7.0710678118654746e-01  0.0000000000000000e+00  0.0000000000000000e+00  0.0000000000000000e+00
                         7.0710678118654746e-01  0.0000000000000000e+00  0.0000000000000000e+00  0.0000000000000000e+00  0.0000000000000000e+00  0.0000000000000000e+00  7.0710678118654746e-01  1.8000000000000000e+02
                         7.0710678118654746e-01  0.0000000000000000e+00  0.0000000000000000e+00  0.0000000000000000e+00  0.0000000000000000e+00  0.0000000000000000e+00  7.0710678118654746e-01  0.0000000000000000e+00
                         0.0000000000000000e+00  0.0000000000000000e+00  7.0710678118654746e-01  1.8000000000000000e+02  7.0710678118654746e-01  0.0000000000000000e+00  0.0000000000000000e+00  0.0000000000000000e+00
2.409000000000000e+00  0.0000000000000000e+00  0.0000000000000000e+00  7.0710678118654746e-01  0.0000000000000000e+00  7.0710678118654746e-01  0.0000000000000000e+00  0.0000000000000000e+00  0.0000000000000000e+00
                         7.0710678118654746e-01  0.0000000000000000e+00  0.0000000000000000e+00  0.0000000000000000e+00  0.0000000000000000e+00  0.0000000000000000e+00  7.0710678118654746e-01  1.8000000000000000e+02
                         7.0710678118654746e-01  0.0000000000000000e+00  0.0000000000000000e+00  0.0000000000000000e+00  0.0000000000000000e+00  0.0000000000000000e+00  7.0710678118654746e-01  0.0000000000000000e+00
                         0.0000000000000000e+00  0.0000000000000000e+00  7.0710678118654746e-01  1.8000000000000000e+02  7.0710678118654746e-01  0.0000000000000000e+00  0.0000000000000000e+00  0.0000000000000000e+00
2.410000000000000e+00  0.0000000000000000e+00  0.0000000000000000e+00  7.0710678118654746e-01  0.0000000000000000e+00  7.0710678118654746e-01  0.0000000000000000e+00  0.0000000000000000e+00  0.0000000000000000e+00
                         7.0710678118654746e-01  0.0000000000000000e+00  0.0000000000000000e+00  0.0000000000000000e+00  0.0000000000000000e+00  0.0000000000000000e+00  7.0710678118654746e-01  1.8000000000000000e+02
                         7.0710678118654746e-01  0.0000000000000000e+00  0.0000000000000000e+00  0.0000000000000000e+00  0.0000000000000000e+00  0.0000000000000000e+00  7.0710678118654746e-01  0.0000000000000000e+00
                         0.0000000000000000e+00  0.0000000000000000e+00  7.0710678118654746e-01  1.8000000000000000e+02  7.0710678118654746e-01  0.0000000000000000e+00  0.0000000000000000e+00  0.0000000000000000e+00
2.411000000000000e+00  0.0000000000000000e+00  0.0000000000000000e+00  7.0710678118654746e-01  0.0000000000000000e+00  7.0710678118654746e-01  0.0000000000000000e+00  0.0000000000000000e+00  0.0000000000000000e+00
                         7.0710678118654746e-01  0.0000000000000000e+00  0.0000000000000000e+00  0.0000000000000000e+00  0.0000000000000000e+00  0.0000000000000000e+00  7.0710678118654746e-01  1.8000000000000000e+02
                         7.0710678118654746e-01  0.0000000000000000e+00  0.0000000000000000e+00  0.0000000000000000e+00  0.0000000000000000e+00  0.0000000000000000e+00  7.0710678118654746e-01  0.0000000000000000e+00
                         0.0000000000000000e+00  0.0000000000000000e+00  7.0710678118654746e-01  1.8000000000000000e+02  7.0710678118654746e-01  0.0000000000000000e+00  0.0000000000000000e+00  0.0000000000000000e+00
2.412000000000000e+00  0.0000000000000000e+00  0.0000000000000000e+00  7.0710678118654746e-01  0.0000000000000000e+00  7.0710678118654746e-01  0.0000000000000000e+00  0.0000000000000000e+00  0.0000000000000000e+00
                         7.0710678118654746e-01  0.0000000000000000e+00  0.0000000000000000e+00  0.0000000000000000e+00  0.0000000000000000e+00  0.0000000000000000e+00  7.0710678118654746e-01  1.8000000000000000e+02
                         7.0710678118654746e-01  0.0000000000000000e+00  0.0000000000000000e+00  0.0000000000000000e+00  0.0000000000000000e+00  0.0000000000000000e+00  7.0710678118654746e-01  0.0000000000000000e+00
                         0.0000000000000000e+00  0.0000000000000000e+00  7.0710678118654746e-01  1.8000000000000000e+02  7.0710678118654746e-01  0.0000000000000000e+00  0.0000000000000000e+00  0.0000000000000000e+00
2.413000000000000e+00  0.0000000000000000e+00  0.0000000000000000e+00  7.0710678118654746e-01  0.0000000000000000e+00  7.0710678118654746e-01  0.0000000000000000e+00  0.0000000000000000e+00  0.0000000000000000e+00
                         7.0710678118654746e-01  0.0000000000000000e+00  0.0000000000000000e+00  0.0000000000000000e+00  0.0000000000000000e+00  0.0000000000000000e+00  7.0710678118654746e-01  1.8000000000000000e+02
                         7.0710678118654746e-01  0.0000000000000000e+00  0.0000000000000000e+00  0.0000000000000000e+00  0.0000000000000000e+00  0.0000000000000000e+00  7.0710678118654746e-01  0.0000000000000000e+00
                         0.0000000000000000e+00  0.0000000000000000e+00  7.0710678118654746e-01  1.8000000000000000e+02  7.0710678118654746e-01  0.0000000000000000e+00  0.0000000000000000e+00  0.0000000000000000e+00
2.414000000000000e+00  0.0000000000000000e+00  0.0000000000000000e+00  7.0710678118654746e-01  0.0000000000000000e+00  7.0710678118654746e-01  0.0000000000000000e+00  0.0000000000000000e+00  0.0000000000000000e+00
                         7.0710678118654746e-01  0.0000000000000000e+00  0.0000000000000000e+00  0.0000000000000000e+00  0.0000000000000000e+00  0.0000000000000000e+00  7.0710678118654746e-01  1.8000000000000000e+02
                         7.0710678118654746e-01  0.0000000000000000e+00  0.0000000000000000e+00  0.0000000000000000e+00  0.0000000000000000e+00  0.0000000000000000e+00  7.0710678118654746e-01  0.0000000000000000e+00
                         0.0000000000000000e+00  0.0000000000000000e+00  7.0710678118654746e-01  1.8000000000000000e+02  7.0710678118654746e-01  0.0000000000000000e+00  0.0000000000000000e+00  0.0000000000000000e+00
2.415000000000000e+00  0.0000000000000000e+00  0.0000000000000000e+00  7.0710678118654746e-01  0.0000000000000000e+00  7.0710678118654746e-01  0.0000000000000000e+00  0.0000000000000000e+00  0.0000000000000000e+00
                         7.0710678118654746e-01  0.0000000000000000e+00  0.0000000000000000e+00  0.0000000000000000e+00  0.0000000000000000e+00  0.0000000000000000e+00  7.0710678118654746e-01  1.8000000000000000e+02
                         7.0710678118654746e-01  0.0000000000000000e+00  0.0000000000000000e+00  0.0000000000000000e+00  0.0000000000000000e+00  0.0000000000000000e+00  7.0710678118654746e-01  0.0000000000000000e+00
                         0.0000000000000000e+00  0.0000000000000000e+00  7.0710678118654746e-01  1.8000000000000000e+02  7.0710678118654746e-01  0.0000000000000000e+00  0.0000000000000000e+00  0.0000000000000000e+00
2.416000000000000e+00  0.0000000000000000e+00  0.0000000000000000e+00  7.0710678118654746e-01  0.0000000000000000e+00  7.0710678118654746e-01  0.0000000000000000e+00  0.0000000000000000e+00  0.0000000000000000e+00
                         7.0710678118654746e-01  0.0000000000000000e+00  0.0000000000000000e+00  0.0000000000000000e+00  0.0000000000000000e+00  0.0000000000000000e+00  7.0710678118654746e-01  1.8000000000000000e+02
                         7.0710678118654746e-01  0.0000000000000000e+00  0.0000000000000000e+00  0.0000000000000000e+00  0.0000000000000000e+00  0.0000000000000000e+00  7.0710678118654746e-01  0.0000000000000000e+00
                         0.0000000000000000e+00  0.0000000000000000e+00  7.0710678118654746e-01  1.8000000000000000e+02  7.0710678118654746e-01  0.0000000000000000e+00  0.0000000000000000e+00  0.0000000000000000e+00
2.417000000000000e+00  0.0000000000000000e+00  0.0000000000000000e+00  7.0710678118654746e-01  0.0000000000000000e+00  7.0710678118654746e-01  0.0000000000000000e+00  0.0000000000000000e+00  0.0000000000000000e+00
                         7.0710678118654746e-01  0.0000000000000000e+00  0.0000000000000000e+00  0.0000000000000000e+00  0.0000000000000000e+00  0.0000000000000000e+00  7.0710678118654746e-01  1.8000000000000000e+02
                         7.0710678118654746e-01  0.0000000000000000e+00  0.0000000000000000e+00  0.0000000000000000e+00  0.0000000000000000e+00  0.0000000000000000e+00  7.0710678118654746e-01  0.0000000000000000e+00
                         0.0000000000000000e+00  0.0000000000000000e+00  7.0710678118654746e-01  1.8000000000000000e+02  7.0710678118654746e-01  0.0000000000000000e+00  0.0000000000000000e+00  0.0000000000000000e+00
2.418000000000000e+00  0.0000000000000000e+00  0.0000000000000000e+00  7.0710678118654746e-01  0.0000000000000000e+00  7.0710678118654746e-01  0.0000000000000000e+00  0.0000000000000000e+00  0.0000000000000000e+00
                         7.0710678118654746e-01  0.0000000000000000e+00  0.0000000000000000e+00  0.0000000000000000e+00  0.0000000000000000e+00  0.0000000000000000e+00  7.0710678118654746e-01  1.8000000000000000e+02
                         7.0710678118654746e-01  0.0000000000000000e+00  0.0000000000000000e+00  0.0000000000000000e+00  0.0000000000000000e+00  0.0000000000000000e+00  7.0710678118654746e-01  0.0000000000000000e+00
                         0.0000000000000000e+00  0.0000000000000000e+00  7.0710678118654746e-01  1.8000000000000000e+02  7.0710678118654746e-01  0.0000000000000000e+00  0.0000000000000000e+00  0.0000000000000000e+00
2.419000000000000e+00  0.0000000000000000e+00  0.0000000000000000e+00  7.0710678118654746e-01  0.0000000000000000e+00  7.0710678118654746e-01  0.0000000000000000e+00  0.0000000000000000e+00  0.0000000000000000e+00
                         7.0710678118654746e-01  0.0000000000000000e+00  0.0000000000000000e+00  0.0000000000000000e+00  0.0000000000000000e+00  0.0000000000000000e+00  7.0710678118654746e-01  1.8000000000000000e+02
                         7.0710678118654746e-01  0.0000000000000000e+00  0.0000000000000000e+00  0.0000000000000000e+00  0.0000000000000000e+00  0.0000000000000000e+00  7.0710678118654746e-01  0.0000000000000000e+00
                         0.0000000000000000e+00  0.0000000000000000e+00  7.0710678118654746e-01  1.8000000000000000e+02  7.0710678118654746e-01  0.0000000000000000e+00  0.0000000000000000e+00  0.0000000000000000e+00
2.420000000000000e+00  0.0000000000000000e+00  0.0000000000000000e+00  7.0710678118654746e-01  0.0000000000000000e+00  7.0710678118654746e-01  0.0000000000000000e+00  0.0000000000000000e+00  0.0000000000000000e+00
                         7.0710678118654746e-01  0.0000000000000000e+00  0.0000000000000000e+00  0.0000000000000000e+00  0.0000000000000000e+00  0.0000000000000000e+00  7.0710678118654746e-01  1.8000000000000000e+02
                         7.0710678118654746e-01  0.0000000000000000e+00  0.0000000000000000e+00  0.0000000000000000e+00  0.0000000000000000e+00  0.0000000000000000e+00  7.0710678118654746e-01  0.0000000000000000e+00
                         0.0000000000000000e+00  0.0000000000000000e+00  7.0710678118654746e-01  1.8000000000000000e+02  7.0710678118654746e-01  0.0000000000000000e+00  0.0000000000000000e+00  0.0000000000000000e+00
2.421000000000000e+00  0.0000000000000000e+00  0.0000000000000000e+00  7.0710678118654746e-01  0.0000000000000000e+00  7.0710678118654746e-01  0.0000000000000000e+00  0.0000000000000000e+00  0.0000000000000000e+00
                         7.0710678118654746e-01  0.0000000000000000e+00  0.0000000000000000e+00  0.0000000000000000e+00  0.0000000000000000e+00  0.0000000000000000e+00  7.0710678118654746e-01  1.8000000000000000e+02
                         7.0710678118654746e-01  0.0000000000000000e+00  0.0000000000000000e+00  0.0000000000000000e+00  0.0000000000000000e+00  0.0000000000000000e+00  7.0710678118654746e-01  0.0000000000000000e+00
                         0.0000000000000000e+00  0.0000000000000000e+00  7.0710678118654746e-01  1.8000000000000000e+02  7.0710678118654746e-01  0.0000000000000000e+00  0.0000000000000000e+00  0.0000000000000000e+00
2.422000000000000e+00  0.0000000000000000e+00  0.0000000000000000e+00  7.0710678118654746e-01  0.0000000000000000e+00  7.0710678118654746e-01  0.0000000000000000e+00  0.0000000000000000e+00  0.0000000000000000e+00
                         7.0710678118654746e-01  0.0000000000000000e+00  0.0000000000000000e+00  0.0000000000000000e+00  0.0000000000000000e+00  0.0000000000000000e+00  7.0710678118654746e-01  1.8000000000000000e+02
                         7.0710678118654746e-01  0.0000000000000000e+00  0.0000000000000000e+00  0.0000000000000000e+00  0.0000000000000000e+00  0.0000000000000000e+00  7.0710678118654746e-01  0.0000000000000000e+00
                         0.0000000000000000e+00  0.0000000000000000e+00  7.0710678118654746e-01  1.8000000000000000e+02  7.0710678118654746e-01  0.0000000000000000e+00  0.0000000000000000e+00  0.0000000000000000e+00
2.423000000000000e+00  0.0000000000000000e+00  0.0000000000000000e+00  7.0710678118654746e-01  0.0000000000000000e+00  7.0710678118654746e-01  0.0000000000000000e+00  0.0000000000000000e+00  0.0000000000000000e+00
                         7.0710678118654746e-01  0.0000000000000000e+00  0.0000000000000000e+00  0.0000000000000000e+00  0.0000000000000000e+00  0.0000000000000000e+00  7.0710678118654746e-01  1.8000000000000000e+02
                         7.0710678118654746e-01  0.0000000000000000e+00  0.0000000000000000e+00  0.0000000000000000e+00  0.0000000000000000e+00  0.0000000000000000e+00  7.0710678118654746e-01  0.0000000000000000e+00
                         0.0000000000000000e+00  0.0000000000000000e+00  7.0710678118654746e-01  1.8000000000000000e+02  7.0710678118654746e-01  0.0000000000000000e+00  0.0000000000000000e+00  0.0000000000000000e+00
2.424000000000000e+00  0.0000000000000000e+00  0.0000000000000000e+00  7.0710678118654746e-01  0.0000000000000000e+00  7.0710678118654746e-01  0.0000000000000000e+00  0.0000000000000000e+00  0.0000000000000000e+00
                         7.0710678118654746e-01  0.0000000000000000e+00  0.0000000000000000e+00  0.0000000000000000e+00  0.0000000000000000e+00  0.0000000000000000e+00  7.0710678118654746e-01  1.8000000000000000e+02
                         7.0710678118654746e-01  0.0000000000000000e+00  0.0000000000000000e+00  0.0000000000000000e+00  0.0000000000000000e+00  0.0000000000000000e+00  7.0710678118654746e-01  0.0000000000000000e+00
                         0.0000000000000000e+00  0.0000000000000000e+00  7.0710678118654746e-01  1.8000000000000000e+02  7.0710678118654746e-01  0.0000000000000000e+00  0.0000000000000000e+00  0.0000000000000000e+00
2.425000000000000e+00  0.0000000000000000e+00  0.0000000000000000e+00  7.0710678118654746e-01  0.0000000000000000e+00  7.0710678118654746e-01  0.0000000000000000e+00  0.0000000000000000e+00  0.0000000000000000e+00
                         7.0710678118654746e-01  0.0000000000000000e+00  0.0000000000000000e+00  0.0000000000000000e+00  0.0000000000000000e+00  0.0000000000000000e+00  7.0710678118654746e-01  1.8000000000000000e+02
                         7.0710678118654746e-01  0.0000000000000000e+00  0.0000000000000000e+00  0.0000000000000000e+00  0.0000000000000000e+00  0.0000000000000000e+00  7.0710678118654746e-01  0.0000000000000000e+00
                         0.0000000000000000e+00  0.0000000000000000e+00  7.0710678118654746e-01  1.8000000000000000e+02  7.0710678118654746e-01  0.0000000000000000e+00  0.0000000000000000e+00  0.0000000000000000e+00
2.426000000000000e+00  0.0000000000000000e+00  0.0000000000000000e+00  7.0710678118654746e-01  0.0000000000000000e+00  7.0710678118654746e-01  0.0000000000000000e+00  0.0000000000000000e+00  0.0000000000000000e+00
                         7.0710678118654746e-01  0.0000000000000000e+00  0.0000000000000000e+00  0.0000000000000000e+00  0.0000000000000000e+00  0.0000000000000000e+00  7.0710678118654746e-01  1.8000000000000000e+02
                         7.0710678118654746e-01  0.0000000000000000e+00  0.0000000000000000e+00  0.0000000000000000e+00  0.0000000000000000e+00  0.0000000000000000e+00  7.0710678118654746e-01  0.0000000000000000e+00
                         0.0000000000000000e+00  0.0000000000000000e+00  7.0710678118654746e-01  1.8000000000000000e+02  7.0710678118654746e-01  0.0000000000000000e+00  0.0000000000000000e+00  0.0000000000000000e+00
2.427000000000000e+00  0.0000000000000000e+00  0.0000000000000000e+00  7.0710678118654746e-01  0.0000000000000000e+00  7.0710678118654746e-01  0.0000000000000000e+00  0.0000000000000000e+00  0.0000000000000000e+00
                         7.0710678118654746e-01  0.0000000000000000e+00  0.0000000000000000e+00  0.0000000000000000e+00  0.0000000000000000e+00  0.0000000000000000e+00  7.0710678118654746e-01  1.8000000000000000e+02
                         7.0710678118654746e-01  0.0000000000000000e+00  0.0000000000000000e+00  0.0000000000000000e+00  0.0000000000000000e+00  0.0000000000000000e+00  7.0710678118654746e-01  0.0000000000000000e+00
                         0.0000000000000000e+00  0.0000000000000000e+00  7.0710678118654746e-01  1.8000000000000000e+02  7.0710678118654746e-01  0.0000000000000000e+00  0.0000000000000000e+00  0.0000000000000000e+00
2.428000000000000e+00  0.0000000000000000e+00  0.0000000000000000e+00  7.0710678118654746e-01  0.0000000000000000e+00  7.0710678118654746e-01  0.0000000000000000e+00  0.0000000000000000e+00  0.0000000000000000e+00
                         7.0710678118654746e-01  0.0000000000000000e+00  0.0000000000000000e+00  0.0000000000000000e+00  0.0000000000000000e+00  0.0000000000000000e+00  7.0710678118654746e-01  1.8000000000000000e+02
                         7.0710678118654746e-01  0.0000000000000000e+00  0.0000000000000000e+00  0.0000000000000000e+00  0.0000000000000000e+00  0.0000000000000000e+00  7.0710678118654746e-01  0.0000000000000000e+00
                         0.0000000000000000e+00  0.0000000000000000e+00  7.0710678118654746e-01  1.8000000000000000e+02  7.0710678118654746e-01  0.0000000000000000e+00  0.0000000000000000e+00  0.0000000000000000e+00
2.429000000000000e+00  0.0000000000000000e+00  0.0000000000000000e+00  7.0710678118654746e-01  0.0000000000000000e+00  7.0710678118654746e-01  0.0000000000000000e+00  0.0000000000000000e+00  0.0000000000000000e+00
                         7.0710678118654746e-01  0.0000000000000000e+00  0.0000000000000000e+00  0.0000000000000000e+00  0.0000000000000000e+00  0.0000000000000000e+00  7.0710678118654746e-01  1.8000000000000000e+02
                         7.0710678118654746e-01  0.0000000000000000e+00  0.0000000000000000e+00  0.0000000000000000e+00  0.0000000000000000e+00  0.0000000000000000e+00  7.0710678118654746e-01  0.0000000000000000e+00
                         0.0000000000000000e+00  0.0000000000000000e+00  7.0710678118654746e-01  1.8000000000000000e+02  7.0710678118654746e-01  0.0000000000000000e+00  0.0000000000000000e+00  0.0000000000000000e+00
2.430000000000000e+00  0.0000000000000000e+00  0.0000000000000000e+00  7.0710678118654746e-01  0.0000000000000000e+00  7.0710678118654746e-01  0.0000000000000000e+00  0.0000000000000000e+00  0.0000000000000000e+00
                         7.0710678118654746e-01  0.0000000000000000e+00  0.0000000000000000e+00  0.0000000000000000e+00  0.0000000000000000e+00  0.0000000000000000e+00  7.0710678118654746e-01  1.8000000000000000e+02
                         7.0710678118654746e-01  0.0000000000000000e+00  0.0000000000000000e+00  0.0000000000000000e+00  0.0000000000000000e+00  0.0000000000000000e+00  7.0710678118654746e-01  0.0000000000000000e+00
                         0.0000000000000000e+00  0.0000000000000000e+00  7.0710678118654746e-01  1.8000000000000000e+02  7.0710678118654746e-01  0.0000000000000000e+00  0.0000000000000000e+00  0.0000000000000000e+00
2.431000000000000e+00  0.0000000000000000e+00  0.0000000000000000e+00  7.0710678118654746e-01  0.0000000000000000e+00  7.0710678118654746e-01  0.0000000000000000e+00  0.0000000000000000e+00  0.0000000000000000e+00
                         7.0710678118654746e-01  0.0000000000000000e+00  0.0000000000000000e+00  0.0000000000000000e+00  0.0000000000000000e+00  0.0000000000000000e+00  7.0710678118654746e-01  1.8000000000000000e+02
                         7.0710678118654746e-01  0.0000000000000000e+00  0.0000000000000000e+00  0.0000000000000000e+00  0.0000000000000000e+00  0.0000000000000000e+00  7.0710678118654746e-01  0.0000000000000000e+00
                         0.0000000000000000e+00  0.0000000000000000e+00  7.0710678118654746e-01  1.8000000000000000e+02  7.0710678118654746e-01  0.0000000000000000e+00  0.0000000000000000e+00  0.0000000000000000e+00
2.432000000000000e+00  0.0000000000000000e+00  0.0000000000000000e+00  7.0710678118654746e-01  0.0000000000000000e+00  7.0710678118654746e-01  0.0000000000000000e+00  0.0000000000000000e+00  0.0000000000000000e+00
                         7.0710678118654746e-01  0.0000000000000000e+00  0.0000000000000000e+00  0.0000000000000000e+00  0.0000000000000000e+00  0.0000000000000000e+00  7.0710678118654746e-01  1.8000000000000000e+02
                         7.0710678118654746e-01  0.0000000000000000e+00  0.0000000000000000e+00  0.0000000000000000e+00  0.0000000000000000e+00  0.0000000000000000e+00  7.0710678118654746e-01  0.0000000000000000e+00
                         0.0000000000000000e+00  0.0000000000000000e+00  7.0710678118654746e-01  1.8000000000000000e+02  7.0710678118654746e-01  0.0000000000000000e+00  0.0000000000000000e+00  0.0000000000000000e+00
2.433000000000000e+00  0.0000000000000000e+00  0.0000000000000000e+00  7.0710678118654746e-01  0.0000000000000000e+00  7.0710678118654746e-01  0.0000000000000000e+00  0.0000000000000000e+00  0.0000000000000000e+00
                         7.0710678118654746e-01  0.0000000000000000e+00  0.0000000000000000e+00  0.0000000000000000e+00  0.0000000000000000e+00  0.0000000000000000e+00  7.0710678118654746e-01  1.8000000000000000e+02
                         7.0710678118654746e-01  0.0000000000000000e+00  0.0000000000000000e+00  0.0000000000000000e+00  0.0000000000000000e+00  0.0000000000000000e+00  7.0710678118654746e-01  0.0000000000000000e+00
                         0.0000000000000000e+00  0.0000000000000000e+00  7.0710678118654746e-01  1.8000000000000000e+02  7.0710678118654746e-01  0.0000000000000000e+00  0.0000000000000000e+00  0.0000000000000000e+00
2.434000000000000e+00  0.0000000000000000e+00  0.0000000000000000e+00  7.0710678118654746e-01  0.0000000000000000e+00  7.0710678118654746e-01  0.0000000000000000e+00  0.0000000000000000e+00  0.0000000000000000e+00
                         7.0710678118654746e-01  0.0000000000000000e+00  0.0000000000000000e+00  0.0000000000000000e+00  0.0000000000000000e+00  0.0000000000000000e+00  7.0710678118654746e-01  1.8000000000000000e+02
                         7.0710678118654746e-01  0.0000000000000000e+00  0.0000000000000000e+00  0.0000000000000000e+00  0.0000000000000000e+00  0.0000000000000000e+00  7.0710678118654746e-01  0.0000000000000000e+00
                         0.0000000000000000e+00  0.0000000000000000e+00  7.0710678118654746e-01  1.8000000000000000e+02  7.0710678118654746e-01  0.0000000000000000e+00  0.0000000000000000e+00  0.0000000000000000e+00
2.435000000000000e+00  0.0000000000000000e+00  0.0000000000000000e+00  7.0710678118654746e-01  0.0000000000000000e+00  7.0710678118654746e-01  0.0000000000000000e+00  0.0000000000000000e+00  0.0000000000000000e+00
                         7.0710678118654746e-01  0.0000000000000000e+00  0.0000000000000000e+00  0.0000000000000000e+00  0.0000000000000000e+00  0.0000000000000000e+00  7.0710678118654746e-01  1.8000000000000000e+02
                         7.0710678118654746e-01  0.0000000000000000e+00  0.0000000000000000e+00  0.0000000000000000e+00  0.0000000000000000e+00  0.0000000000000000e+00  7.0710678118654746e-01  0.0000000000000000e+00
                         0.0000000000000000e+00  0.0000000000000000e+00  7.0710678118654746e-01  1.8000000000000000e+02  7.0710678118654746e-01  0.0000000000000000e+00  0.0000000000000000e+00  0.0000000000000000e+00
2.436000000000000e+00  0.0000000000000000e+00  0.0000000000000000e+00  7.0710678118654746e-01  0.0000000000000000e+00  7.0710678118654746e-01  0.0000000000000000e+00  0.0000000000000000e+00  0.0000000000000000e+00
                         7.0710678118654746e-01  0.0000000000000000e+00  0.0000000000000000e+00  0.0000000000000000e+00  0.0000000000000000e+00  0.0000000000000000e+00  7.0710678118654746e-01  1.8000000000000000e+02
                         7.0710678118654746e-01  0.0000000000000000e+00  0.0000000000000000e+00  0.0000000000000000e+00  0.0000000000000000e+00  0.0000000000000000e+00  7.0710678118654746e-01  0.0000000000000000e+00
                         0.0000000000000000e+00  0.0000000000000000e+00  7.0710678118654746e-01  1.8000000000000000e+02  7.0710678118654746e-01  0.0000000000000000e+00  0.0000000000000000e+00  0.0000000000000000e+00
2.437000000000000e+00  0.0000000000000000e+00  0.0000000000000000e+00  7.0710678118654746e-01  0.0000000000000000e+00  7.0710678118654746e-01  0.0000000000000000e+00  0.0000000000000000e+00  0.0000000000000000e+00
                         7.0710678118654746e-01  0.0000000000000000e+00  0.0000000000000000e+00  0.0000000000000000e+00  0.0000000000000000e+00  0.0000000000000000e+00  7.0710678118654746e-01  1.8000000000000000e+02
                         7.0710678118654746e-01  0.0000000000000000e+00  0.0000000000000000e+00  0.0000000000000000e+00  0.0000000000000000e+00  0.0000000000000000e+00  7.0710678118654746e-01  0.0000000000000000e+00
                         0.0000000000000000e+00  0.0000000000000000e+00  7.0710678118654746e-01  1.8000000000000000e+02  7.0710678118654746e-01  0.0000000000000000e+00  0.0000000000000000e+00  0.0000000000000000e+00
2.438000000000000e+00  0.0000000000000000e+00  0.0000000000000000e+00  7.0710678118654746e-01  0.0000000000000000e+00  7.0710678118654746e-01  0.0000000000000000e+00  0.0000000000000000e+00  0.0000000000000000e+00
                         7.0710678118654746e-01  0.0000000000000000e+00  0.0000000000000000e+00  0.0000000000000000e+00  0.0000000000000000e+00  0.0000000000000000e+00  7.0710678118654746e-01  1.8000000000000000e+02
                         7.0710678118654746e-01  0.0000000000000000e+00  0.0000000000000000e+00  0.0000000000000000e+00  0.0000000000000000e+00  0.0000000000000000e+00  7.0710678118654746e-01  0.0000000000000000e+00
                         0.0000000000000000e+00  0.0000000000000000e+00  7.0710678118654746e-01  1.8000000000000000e+02  7.0710678118654746e-01  0.0000000000000000e+00  0.0000000000000000e+00  0.0000000000000000e+00
2.439000000000000e+00  0.0000000000000000e+00  0.0000000000000000e+00  7.0710678118654746e-01  0.0000000000000000e+00  7.0710678118654746e-01  0.0000000000000000e+00  0.0000000000000000e+00  0.0000000000000000e+00
                         7.0710678118654746e-01  0.0000000000000000e+00  0.0000000000000000e+00  0.0000000000000000e+00  0.0000000000000000e+00  0.0000000000000000e+00  7.0710678118654746e-01  1.8000000000000000e+02
                         7.0710678118654746e-01  0.0000000000000000e+00  0.0000000000000000e+00  0.0000000000000000e+00  0.0000000000000000e+00  0.0000000000000000e+00  7.0710678118654746e-01  0.0000000000000000e+00
                         0.0000000000000000e+00  0.0000000000000000e+00  7.0710678118654746e-01  1.8000000000000000e+02  7.0710678118654746e-01  0.0000000000000000e+00  0.0000000000000000e+00  0.0000000000000000e+00
2.440000000000000e+00  0.0000000000000000e+00  0.0000000000000000e+00  7.0710678118654746e-01  0.0000000000000000e+00  7.0710678118654746e-01  0.0000000000000000e+00  0.0000000000000000e+00  0.0000000000000000e+00
                         7.0710678118654746e-01  0.0000000000000000e+00  0.0000000000000000e+00  0.0000000000000000e+00  0.0000000000000000e+00  0.0000000000000000e+00  7.0710678118654746e-01  1.8000000000000000e+02
                         7.0710678118654746e-01  0.0000000000000000e+00  0.0000000000000000e+00  0.0000000000000000e+00  0.0000000000000000e+00  0.0000000000000000e+00  7.0710678118654746e-01  0.0000000000000000e+00
                         0.0000000000000000e+00  0.0000000000000000e+00  7.0710678118654746e-01  1.8000000000000000e+02  7.0710678118654746e-01  0.0000000000000000e+00  0.0000000000000000e+00  0.0000000000000000e+00
2.441000000000000e+00  0.0000000000000000e+00  0.0000000000000000e+00  7.0710678118654746e-01  0.0000000000000000e+00  7.0710678118654746e-01  0.0000000000000000e+00  0.0000000000000000e+00  0.0000000000000000e+00
                         7.0710678118654746e-01  0.0000000000000000e+00  0.0000000000000000e+00  0.0000000000000000e+00  0.0000000000000000e+00  0.0000000000000000e+00  7.0710678118654746e-01  1.8000000000000000e+02
                         7.0710678118654746e-01  0.0000000000000000e+00  0.0000000000000000e+00  0.0000000000000000e+00  0.0000000000000000e+00  0.0000000000000000e+00  7.0710678118654746e-01  0.0000000000000000e+00
                         0.0000000000000000e+00  0.0000000000000000e+00  7.0710678118654746e-01  1.8000000000000000e+02  7.0710678118654746e-01  0.0000000000000000e+00  0.0000000000000000e+00  0.0000000000000000e+00
2.442000000000000e+00  0.0000000000000000e+00  0.0000000000000000e+00  7.0710678118654746e-01  0.0000000000000000e+00  7.0710678118654746e-01  0.0000000000000000e+00  0.0000000000000000e+00  0.0000000000000000e+00
                         7.0710678118654746e-01  0.0000000000000000e+00  0.0000000000000000e+00  0.0000000000000000e+00  0.0000000000000000e+00  0.0000000000000000e+00  7.0710678118654746e-01  1.8000000000000000e+02
                         7.0710678118654746e-01  0.0000000000000000e+00  0.0000000000000000e+00  0.0000000000000000e+00  0.0000000000000000e+00  0.0000000000000000e+00  7.0710678118654746e-01  0.0000000000000000e+00
                         0.0000000000000000e+00  0.0000000000000000e+00  7.0710678118654746e-01  1.8000000000000000e+02  7.0710678118654746e-01  0.0000000000000000e+00  0.0000000000000000e+00  0.0000000000000000e+00
2.443000000000000e+00  0.0000000000000000e+00  0.0000000000000000e+00  7.0710678118654746e-01  0.0000000000000000e+00  7.0710678118654746e-01  0.0000000000000000e+00  0.0000000000000000e+00  0.0000000000000000e+00
                         7.0710678118654746e-01  0.0000000000000000e+00  0.0000000000000000e+00  0.0000000000000000e+00  0.0000000000000000e+00  0.0000000000000000e+00  7.0710678118654746e-01  1.8000000000000000e+02
                         7.0710678118654746e-01  0.0000000000000000e+00  0.0000000000000000e+00  0.0000000000000000e+00  0.0000000000000000e+00  0.0000000000000000e+00  7.0710678118654746e-01  0.0000000000000000e+00
                         0.0000000000000000e+00  0.0000000000000000e+00  7.0710678118654746e-01  1.8000000000000000e+02  7.0710678118654746e-01  0.0000000000000000e+00  0.0000000000000000e+00  0.0000000000000000e+00
2.444000000000000e+00  0.0000000000000000e+00  0.0000000000000000e+00  7.0710678118654746e-01  0.0000000000000000e+00  7.0710678118654746e-01  0.0000000000000000e+00  0.0000000000000000e+00  0.0000000000000000e+00
                         7.0710678118654746e-01  0.0000000000000000e+00  0.0000000000000000e+00  0.0000000000000000e+00  0.0000000000000000e+00  0.0000000000000000e+00  7.0710678118654746e-01  1.8000000000000000e+02
                         7.0710678118654746e-01  0.0000000000000000e+00  0.0000000000000000e+00  0.0000000000000000e+00  0.0000000000000000e+00  0.0000000000000000e+00  7.0710678118654746e-01  0.0000000000000000e+00
                         0.0000000000000000e+00  0.0000000000000000e+00  7.0710678118654746e-01  1.8000000000000000e+02  7.0710678118654746e-01  0.0000000000000000e+00  0.0000000000000000e+00  0.0000000000000000e+00
2.445000000000000e+00  0.0000000000000000e+00  0.0000000000000000e+00  7.0710678118654746e-01  0.0000000000000000e+00  7.0710678118654746e-01  0.0000000000000000e+00  0.0000000000000000e+00  0.0000000000000000e+00
                         7.0710678118654746e-01  0.0000000000000000e+00  0.0000000000000000e+00  0.0000000000000000e+00  0.0000000000000000e+00  0.0000000000000000e+00  7.0710678118654746e-01  1.8000000000000000e+02
                         7.0710678118654746e-01  0.0000000000000000e+00  0.0000000000000000e+00  0.0000000000000000e+00  0.0000000000000000e+00  0.0000000000000000e+00  7.0710678118654746e-01  0.0000000000000000e+00
                         0.0000000000000000e+00  0.0000000000000000e+00  7.0710678118654746e-01  1.8000000000000000e+02  7.0710678118654746e-01  0.0000000000000000e+00  0.0000000000000000e+00  0.0000000000000000e+00
2.446000000000000e+00  0.0000000000000000e+00  0.0000000000000000e+00  7.0710678118654746e-01  0.0000000000000000e+00  7.0710678118654746e-01  0.0000000000000000e+00  0.0000000000000000e+00  0.0000000000000000e+00
                         7.0710678118654746e-01  0.0000000000000000e+00  0.0000000000000000e+00  0.0000000000000000e+00  0.0000000000000000e+00  0.0000000000000000e+00  7.0710678118654746e-01  1.8000000000000000e+02
                         7.0710678118654746e-01  0.0000000000000000e+00  0.0000000000000000e+00  0.0000000000000000e+00  0.0000000000000000e+00  0.0000000000000000e+00  7.0710678118654746e-01  0.0000000000000000e+00
                         0.0000000000000000e+00  0.0000000000000000e+00  7.0710678118654746e-01  1.8000000000000000e+02  7.0710678118654746e-01  0.0000000000000000e+00  0.0000000000000000e+00  0.0000000000000000e+00
2.447000000000000e+00  0.0000000000000000e+00  0.0000000000000000e+00  7.0710678118654746e-01  0.0000000000000000e+00  7.0710678118654746e-01  0.0000000000000000e+00  0.0000000000000000e+00  0.0000000000000000e+00
                         7.0710678118654746e-01  0.0000000000000000e+00  0.0000000000000000e+00  0.0000000000000000e+00  0.0000000000000000e+00  0.0000000000000000e+00  7.0710678118654746e-01  1.8000000000000000e+02
                         7.0710678118654746e-01  0.0000000000000000e+00  0.0000000000000000e+00  0.0000000000000000e+00  0.0000000000000000e+00  0.0000000000000000e+00  7.0710678118654746e-01  0.0000000000000000e+00
                         0.0000000000000000e+00  0.0000000000000000e+00  7.0710678118654746e-01  1.8000000000000000e+02  7.0710678118654746e-01  0.0000000000000000e+00  0.0000000000000000e+00  0.0000000000000000e+00
2.448000000000000e+00  0.0000000000000000e+00  0.0000000000000000e+00  7.0710678118654746e-01  0.0000000000000000e+00  7.0710678118654746e-01  0.0000000000000000e+00  0.0000000000000000e+00  0.0000000000000000e+00
                         7.0710678118654746e-01  0.0000000000000000e+00  0.0000000000000000e+00  0.0000000000000000e+00  0.0000000000000000e+00  0.0000000000000000e+00  7.0710678118654746e-01  1.8000000000000000e+02
                         7.0710678118654746e-01  0.0000000000000000e+00  0.0000000000000000e+00  0.0000000000000000e+00  0.0000000000000000e+00  0.0000000000000000e+00  7.0710678118654746e-01  0.0000000000000000e+00
                         0.0000000000000000e+00  0.0000000000000000e+00  7.0710678118654746e-01  1.8000000000000000e+02  7.0710678118654746e-01  0.0000000000000000e+00  0.0000000000000000e+00  0.0000000000000000e+00
2.449000000000000e+00  0.0000000000000000e+00  0.0000000000000000e+00  7.0710678118654746e-01  0.0000000000000000e+00  7.0710678118654746e-01  0.0000000000000000e+00  0.0000000000000000e+00  0.0000000000000000e+00
                         7.0710678118654746e-01  0.0000000000000000e+00  0.0000000000000000e+00  0.0000000000000000e+00  0.0000000000000000e+00  0.0000000000000000e+00  7.0710678118654746e-01  1.8000000000000000e+02
                         7.0710678118654746e-01  0.0000000000000000e+00  0.0000000000000000e+00  0.0000000000000000e+00  0.0000000000000000e+00  0.0000000000000000e+00  7.0710678118654746e-01  0.0000000000000000e+00
                         0.0000000000000000e+00  0.0000000000000000e+00  7.0710678118654746e-01  1.8000000000000000e+02  7.0710678118654746e-01  0.0000000000000000e+00  0.0000000000000000e+00  0.0000000000000000e+00
2.450000000000000e+00  0.0000000000000000e+00  0.0000000000000000e+00  7.0710678118654746e-01  0.0000000000000000e+00  7.0710678118654746e-01  0.0000000000000000e+00  0.0000000000000000e+00  0.0000000000000000e+00
                         7.0710678118654746e-01  0.0000000000000000e+00  0.0000000000000000e+00  0.0000000000000000e+00  0.0000000000000000e+00  0.0000000000000000e+00  7.0710678118654746e-01  1.8000000000000000e+02
                         7.0710678118654746e-01  0.0000000000000000e+00  0.0000000000000000e+00  0.0000000000000000e+00  0.0000000000000000e+00  0.0000000000000000e+00  7.0710678118654746e-01  0.0000000000000000e+00
                         0.0000000000000000e+00  0.0000000000000000e+00  7.0710678118654746e-01  1.8000000000000000e+02  7.0710678118654746e-01  0.0000000000000000e+00  0.0000000000000000e+00  0.0000000000000000e+00
2.451000000000000e+00  0.0000000000000000e+00  0.0000000000000000e+00  7.0710678118654746e-01  0.0000000000000000e+00  7.0710678118654746e-01  0.0000000000000000e+00  0.0000000000000000e+00  0.0000000000000000e+00
                         7.0710678118654746e-01  0.0000000000000000e+00  0.0000000000000000e+00  0.0000000000000000e+00  0.0000000000000000e+00  0.0000000000000000e+00  7.0710678118654746e-01  1.8000000000000000e+02
                         7.0710678118654746e-01  0.0000000000000000e+00  0.0000000000000000e+00  0.0000000000000000e+00  0.0000000000000000e+00  0.0000000000000000e+00  7.0710678118654746e-01  0.0000000000000000e+00
                         0.0000000000000000e+00  0.0000000000000000e+00  7.0710678118654746e-01  1.8000000000000000e+02  7.0710678118654746e-01  0.0000000000000000e+00  0.0000000000000000e+00  0.0000000000000000e+00
2.452000000000000e+00  0.0000000000000000e+00  0.0000000000000000e+00  7.0710678118654746e-01  0.0000000000000000e+00  7.0710678118654746e-01  0.0000000000000000e+00  0.0000000000000000e+00  0.0000000000000000e+00
                         7.0710678118654746e-01  0.0000000000000000e+00  0.0000000000000000e+00  0.0000000000000000e+00  0.0000000000000000e+00  0.0000000000000000e+00  7.0710678118654746e-01  1.8000000000000000e+02
                         7.0710678118654746e-01  0.0000000000000000e+00  0.0000000000000000e+00  0.0000000000000000e+00  0.0000000000000000e+00  0.0000000000000000e+00  7.0710678118654746e-01  0.0000000000000000e+00
                         0.0000000000000000e+00  0.0000000000000000e+00  7.0710678118654746e-01  1.8000000000000000e+02  7.0710678118654746e-01  0.0000000000000000e+00  0.0000000000000000e+00  0.0000000000000000e+00
2.453000000000000e+00  0.0000000000000000e+00  0.0000000000000000e+00  7.0710678118654746e-01  0.0000000000000000e+00  7.0710678118654746e-01  0.0000000000000000e+00  0.0000000000000000e+00  0.0000000000000000e+00
                         7.0710678118654746e-01  0.0000000000000000e+00  0.0000000000000000e+00  0.0000000000000000e+00  0.0000000000000000e+00  0.0000000000000000e+00  7.0710678118654746e-01  1.8000000000000000e+02
                         7.0710678118654746e-01  0.0000000000000000e+00  0.0000000000000000e+00  0.0000000000000000e+00  0.0000000000000000e+00  0.0000000000000000e+00  7.0710678118654746e-01  0.0000000000000000e+00
                         0.0000000000000000e+00  0.0000000000000000e+00  7.0710678118654746e-01  1.8000000000000000e+02  7.0710678118654746e-01  0.0000000000000000e+00  0.0000000000000000e+00  0.0000000000000000e+00
2.454000000000000e+00  0.0000000000000000e+00  0.0000000000000000e+00  7.0710678118654746e-01  0.0000000000000000e+00  7.0710678118654746e-01  0.0000000000000000e+00  0.0000000000000000e+00  0.0000000000000000e+00
                         7.0710678118654746e-01  0.0000000000000000e+00  0.0000000000000000e+00  0.0000000000000000e+00  0.0000000000000000e+00  0.0000000000000000e+00  7.0710678118654746e-01  1.8000000000000000e+02
                         7.0710678118654746e-01  0.0000000000000000e+00  0.0000000000000000e+00  0.0000000000000000e+00  0.0000000000000000e+00  0.0000000000000000e+00  7.0710678118654746e-01  0.0000000000000000e+00
                         0.0000000000000000e+00  0.0000000000000000e+00  7.0710678118654746e-01  1.8000000000000000e+02  7.0710678118654746e-01  0.0000000000000000e+00  0.0000000000000000e+00  0.0000000000000000e+00
2.455000000000000e+00  0.0000000000000000e+00  0.0000000000000000e+00  7.0710678118654746e-01  0.0000000000000000e+00  7.0710678118654746e-01  0.0000000000000000e+00  0.0000000000000000e+00  0.0000000000000000e+00
                         7.0710678118654746e-01  0.0000000000000000e+00  0.0000000000000000e+00  0.0000000000000000e+00  0.0000000000000000e+00  0.0000000000000000e+00  7.0710678118654746e-01  1.8000000000000000e+02
                         7.0710678118654746e-01  0.0000000000000000e+00  0.0000000000000000e+00  0.0000000000000000e+00  0.0000000000000000e+00  0.0000000000000000e+00  7.0710678118654746e-01  0.0000000000000000e+00
                         0.0000000000000000e+00  0.0000000000000000e+00  7.0710678118654746e-01  1.8000000000000000e+02  7.0710678118654746e-01  0.0000000000000000e+00  0.0000000000000000e+00  0.0000000000000000e+00
2.456000000000000e+00  0.0000000000000000e+00  0.0000000000000000e+00  7.0710678118654746e-01  0.0000000000000000e+00  7.0710678118654746e-01  0.0000000000000000e+00  0.0000000000000000e+00  0.0000000000000000e+00
                         7.0710678118654746e-01  0.0000000000000000e+00  0.0000000000000000e+00  0.0000000000000000e+00  0.0000000000000000e+00  0.0000000000000000e+00  7.0710678118654746e-01  1.8000000000000000e+02
                         7.0710678118654746e-01  0.0000000000000000e+00  0.0000000000000000e+00  0.0000000000000000e+00  0.0000000000000000e+00  0.0000000000000000e+00  7.0710678118654746e-01  0.0000000000000000e+00
                         0.0000000000000000e+00  0.0000000000000000e+00  7.0710678118654746e-01  1.8000000000000000e+02  7.0710678118654746e-01  0.0000000000000000e+00  0.0000000000000000e+00  0.0000000000000000e+00
2.457000000000000e+00  0.0000000000000000e+00  0.0000000000000000e+00  7.0710678118654746e-01  0.0000000000000000e+00  7.0710678118654746e-01  0.0000000000000000e+00  0.0000000000000000e+00  0.0000000000000000e+00
                         7.0710678118654746e-01  0.0000000000000000e+00  0.0000000000000000e+00  0.0000000000000000e+00  0.0000000000000000e+00  0.0000000000000000e+00  7.0710678118654746e-01  1.8000000000000000e+02
                         7.0710678118654746e-01  0.0000000000000000e+00  0.0000000000000000e+00  0.0000000000000000e+00  0.0000000000000000e+00  0.0000000000000000e+00  7.0710678118654746e-01  0.0000000000000000e+00
                         0.0000000000000000e+00  0.0000000000000000e+00  7.0710678118654746e-01  1.8000000000000000e+02  7.0710678118654746e-01  0.0000000000000000e+00  0.0000000000000000e+00  0.0000000000000000e+00
2.458000000000000e+00  0.0000000000000000e+00  0.0000000000000000e+00  7.0710678118654746e-01  0.0000000000000000e+00  7.0710678118654746e-01  0.0000000000000000e+00  0.0000000000000000e+00  0.0000000000000000e+00
                         7.0710678118654746e-01  0.0000000000000000e+00  0.0000000000000000e+00  0.0000000000000000e+00  0.0000000000000000e+00  0.0000000000000000e+00  7.0710678118654746e-01  1.8000000000000000e+02
                         7.0710678118654746e-01  0.0000000000000000e+00  0.0000000000000000e+00  0.0000000000000000e+00  0.0000000000000000e+00  0.0000000000000000e+00  7.0710678118654746e-01  0.0000000000000000e+00
                         0.0000000000000000e+00  0.0000000000000000e+00  7.0710678118654746e-01  1.8000000000000000e+02  7.0710678118654746e-01  0.0000000000000000e+00  0.0000000000000000e+00  0.0000000000000000e+00
2.459000000000000e+00  0.0000000000000000e+00  0.0000000000000000e+00  7.0710678118654746e-01  0.0000000000000000e+00  7.0710678118654746e-01  0.0000000000000000e+00  0.0000000000000000e+00  0.0000000000000000e+00
                         7.0710678118654746e-01  0.0000000000000000e+00  0.0000000000000000e+00  0.0000000000000000e+00  0.0000000000000000e+00  0.0000000000000000e+00  7.0710678118654746e-01  1.8000000000000000e+02
                         7.0710678118654746e-01  0.0000000000000000e+00  0.0000000000000000e+00  0.0000000000000000e+00  0.0000000000000000e+00  0.0000000000000000e+00  7.0710678118654746e-01  0.0000000000000000e+00
                         0.0000000000000000e+00  0.0000000000000000e+00  7.0710678118654746e-01  1.8000000000000000e+02  7.0710678118654746e-01  0.0000000000000000e+00  0.0000000000000000e+00  0.0000000000000000e+00
2.460000000000000e+00  0.0000000000000000e+00  0.0000000000000000e+00  7.0710678118654746e-01  0.0000000000000000e+00  7.0710678118654746e-01  0.0000000000000000e+00  0.0000000000000000e+00  0.0000000000000000e+00
                         7.0710678118654746e-01  0.0000000000000000e+00  0.0000000000000000e+00  0.0000000000000000e+00  0.0000000000000000e+00  0.0000000000000000e+00  7.0710678118654746e-01  1.8000000000000000e+02
                         7.0710678118654746e-01  0.0000000000000000e+00  0.0000000000000000e+00  0.0000000000000000e+00  0.0000000000000000e+00  0.0000000000000000e+00  7.0710678118654746e-01  0.0000000000000000e+00
                         0.0000000000000000e+00  0.0000000000000000e+00  7.0710678118654746e-01  1.8000000000000000e+02  7.0710678118654746e-01  0.0000000000000000e+00  0.0000000000000000e+00  0.0000000000000000e+00
2.461000000000000e+00  0.0000000000000000e+00  0.0000000000000000e+00  7.0710678118654746e-01  0.0000000000000000e+00  7.0710678118654746e-01  0.0000000000000000e+00  0.0000000000000000e+00  0.0000000000000000e+00
                         7.0710678118654746e-01  0.0000000000000000e+00  0.0000000000000000e+00  0.0000000000000000e+00  0.0000000000000000e+00  0.0000000000000000e+00  7.0710678118654746e-01  1.8000000000000000e+02
                         7.0710678118654746e-01  0.0000000000000000e+00  0.0000000000000000e+00  0.0000000000000000e+00  0.0000000000000000e+00  0.0000000000000000e+00  7.0710678118654746e-01  0.0000000000000000e+00
                         0.0000000000000000e+00  0.0000000000000000e+00  7.0710678118654746e-01  1.8000000000000000e+02  7.0710678118654746e-01  0.0000000000000000e+00  0.0000000000000000e+00  0.0000000000000000e+00
2.462000000000000e+00  0.0000000000000000e+00  0.0000000000000000e+00  7.0710678118654746e-01  0.0000000000000000e+00  7.0710678118654746e-01  0.0000000000000000e+00  0.0000000000000000e+00  0.0000000000000000e+00
                         7.0710678118654746e-01  0.0000000000000000e+00  0.0000000000000000e+00  0.0000000000000000e+00  0.0000000000000000e+00  0.0000000000000000e+00  7.0710678118654746e-01  1.8000000000000000e+02
                         7.0710678118654746e-01  0.0000000000000000e+00  0.0000000000000000e+00  0.0000000000000000e+00  0.0000000000000000e+00  0.0000000000000000e+00  7.0710678118654746e-01  0.0000000000000000e+00
                         0.0000000000000000e+00  0.0000000000000000e+00  7.0710678118654746e-01  1.8000000000000000e+02  7.0710678118654746e-01  0.0000000000000000e+00  0.0000000000000000e+00  0.0000000000000000e+00
2.463000000000000e+00  0.0000000000000000e+00  0.0000000000000000e+00  7.0710678118654746e-01  0.0000000000000000e+00  7.0710678118654746e-01  0.0000000000000000e+00  0.0000000000000000e+00  0.0000000000000000e+00
                         7.0710678118654746e-01  0.0000000000000000e+00  0.0000000000000000e+00  0.0000000000000000e+00  0.0000000000000000e+00  0.0000000000000000e+00  7.0710678118654746e-01  1.8000000000000000e+02
                         7.0710678118654746e-01  0.0000000000000000e+00  0.0000000000000000e+00  0.0000000000000000e+00  0.0000000000000000e+00  0.0000000000000000e+00  7.0710678118654746e-01  0.0000000000000000e+00
                         0.0000000000000000e+00  0.0000000000000000e+00  7.0710678118654746e-01  1.8000000000000000e+02  7.0710678118654746e-01  0.0000000000000000e+00  0.0000000000000000e+00  0.0000000000000000e+00
2.464000000000000e+00  0.0000000000000000e+00  0.0000000000000000e+00  7.0710678118654746e-01  0.0000000000000000e+00  7.0710678118654746e-01  0.0000000000000000e+00  0.0000000000000000e+00  0.0000000000000000e+00
                         7.0710678118654746e-01  0.0000000000000000e+00  0.0000000000000000e+00  0.0000000000000000e+00  0.0000000000000000e+00  0.0000000000000000e+00  7.0710678118654746e-01  1.8000000000000000e+02
                         7.0710678118654746e-01  0.0000000000000000e+00  0.0000000000000000e+00  0.0000000000000000e+00  0.0000000000000000e+00  0.0000000000000000e+00  7.0710678118654746e-01  0.0000000000000000e+00
                         0.0000000000000000e+00  0.0000000000000000e+00  7.0710678118654746e-01  1.8000000000000000e+02  7.0710678118654746e-01  0.0000000000000000e+00  0.0000000000000000e+00  0.0000000000000000e+00
2.465000000000000e+00  0.0000000000000000e+00  0.0000000000000000e+00  7.0710678118654746e-01  0.0000000000000000e+00  7.0710678118654746e-01  0.0000000000000000e+00  0.0000000000000000e+00  0.0000000000000000e+00
                         7.0710678118654746e-01  0.0000000000000000e+00  0.0000000000000000e+00  0.0000000000000000e+00  0.0000000000000000e+00  0.0000000000000000e+00  7.0710678118654746e-01  1.8000000000000000e+02
                         7.0710678118654746e-01  0.0000000000000000e+00  0.0000000000000000e+00  0.0000000000000000e+00  0.0000000000000000e+00  0.0000000000000000e+00  7.0710678118654746e-01  0.0000000000000000e+00
                         0.0000000000000000e+00  0.0000000000000000e+00  7.0710678118654746e-01  1.8000000000000000e+02  7.0710678118654746e-01  0.0000000000000000e+00  0.0000000000000000e+00  0.0000000000000000e+00
2.466000000000000e+00  0.0000000000000000e+00  0.0000000000000000e+00  7.0710678118654746e-01  0.0000000000000000e+00  7.0710678118654746e-01  0.0000000000000000e+00  0.0000000000000000e+00  0.0000000000000000e+00
                         7.0710678118654746e-01  0.0000000000000000e+00  0.0000000000000000e+00  0.0000000000000000e+00  0.0000000000000000e+00  0.0000000000000000e+00  7.0710678118654746e-01  1.8000000000000000e+02
                         7.0710678118654746e-01  0.0000000000000000e+00  0.0000000000000000e+00  0.0000000000000000e+00  0.0000000000000000e+00  0.0000000000000000e+00  7.0710678118654746e-01  0.0000000000000000e+00
                         0.0000000000000000e+00  0.0000000000000000e+00  7.0710678118654746e-01  1.8000000000000000e+02  7.0710678118654746e-01  0.0000000000000000e+00  0.0000000000000000e+00  0.0000000000000000e+00
2.467000000000000e+00  0.0000000000000000e+00  0.0000000000000000e+00  7.0710678118654746e-01  0.0000000000000000e+00  7.0710678118654746e-01  0.0000000000000000e+00  0.0000000000000000e+00  0.0000000000000000e+00
                         7.0710678118654746e-01  0.0000000000000000e+00  0.0000000000000000e+00  0.0000000000000000e+00  0.0000000000000000e+00  0.0000000000000000e+00  7.0710678118654746e-01  1.8000000000000000e+02
                         7.0710678118654746e-01  0.0000000000000000e+00  0.0000000000000000e+00  0.0000000000000000e+00  0.0000000000000000e+00  0.0000000000000000e+00  7.0710678118654746e-01  0.0000000000000000e+00
                         0.0000000000000000e+00  0.0000000000000000e+00  7.0710678118654746e-01  1.8000000000000000e+02  7.0710678118654746e-01  0.0000000000000000e+00  0.0000000000000000e+00  0.0000000000000000e+00
2.468000000000000e+00  0.0000000000000000e+00  0.0000000000000000e+00  7.0710678118654746e-01  0.0000000000000000e+00  7.0710678118654746e-01  0.0000000000000000e+00  0.0000000000000000e+00  0.0000000000000000e+00
                         7.0710678118654746e-01  0.0000000000000000e+00  0.0000000000000000e+00  0.0000000000000000e+00  0.0000000000000000e+00  0.0000000000000000e+00  7.0710678118654746e-01  1.8000000000000000e+02
                         7.0710678118654746e-01  0.0000000000000000e+00  0.0000000000000000e+00  0.0000000000000000e+00  0.0000000000000000e+00  0.0000000000000000e+00  7.0710678118654746e-01  0.0000000000000000e+00
                         0.0000000000000000e+00  0.0000000000000000e+00  7.0710678118654746e-01  1.8000000000000000e+02  7.0710678118654746e-01  0.0000000000000000e+00  0.0000000000000000e+00  0.0000000000000000e+00
2.469000000000000e+00  0.0000000000000000e+00  0.0000000000000000e+00  7.0710678118654746e-01  0.0000000000000000e+00  7.0710678118654746e-01  0.0000000000000000e+00  0.0000000000000000e+00  0.0000000000000000e+00
                         7.0710678118654746e-01  0.0000000000000000e+00  0.0000000000000000e+00  0.0000000000000000e+00  0.0000000000000000e+00  0.0000000000000000e+00  7.0710678118654746e-01  1.8000000000000000e+02
                         7.0710678118654746e-01  0.0000000000000000e+00  0.0000000000000000e+00  0.0000000000000000e+00  0.0000000000000000e+00  0.0000000000000000e+00  7.0710678118654746e-01  0.0000000000000000e+00
                         0.0000000000000000e+00  0.0000000000000000e+00  7.0710678118654746e-01  1.8000000000000000e+02  7.0710678118654746e-01  0.0000000000000000e+00  0.0000000000000000e+00  0.0000000000000000e+00
2.470000000000000e+00  0.0000000000000000e+00  0.0000000000000000e+00  7.0710678118654746e-01  0.0000000000000000e+00  7.0710678118654746e-01  0.0000000000000000e+00  0.0000000000000000e+00  0.0000000000000000e+00
                         7.0710678118654746e-01  0.0000000000000000e+00  0.0000000000000000e+00  0.0000000000000000e+00  0.0000000000000000e+00  0.0000000000000000e+00  7.0710678118654746e-01  1.8000000000000000e+02
                         7.0710678118654746e-01  0.0000000000000000e+00  0.0000000000000000e+00  0.0000000000000000e+00  0.0000000000000000e+00  0.0000000000000000e+00  7.0710678118654746e-01  0.0000000000000000e+00
                         0.0000000000000000e+00  0.0000000000000000e+00  7.0710678118654746e-01  1.8000000000000000e+02  7.0710678118654746e-01  0.0000000000000000e+00  0.0000000000000000e+00  0.0000000000000000e+00
2.471000000000000e+00  0.0000000000000000e+00  0.0000000000000000e+00  7.0710678118654746e-01  0.0000000000000000e+00  7.0710678118654746e-01  0.0000000000000000e+00  0.0000000000000000e+00  0.0000000000000000e+00
                         7.0710678118654746e-01  0.0000000000000000e+00  0.0000000000000000e+00  0.0000000000000000e+00  0.0000000000000000e+00  0.0000000000000000e+00  7.0710678118654746e-01  1.8000000000000000e+02
                         7.0710678118654746e-01  0.0000000000000000e+00  0.0000000000000000e+00  0.0000000000000000e+00  0.0000000000000000e+00  0.0000000000000000e+00  7.0710678118654746e-01  0.0000000000000000e+00
                         0.0000000000000000e+00  0.0000000000000000e+00  7.0710678118654746e-01  1.8000000000000000e+02  7.0710678118654746e-01  0.0000000000000000e+00  0.0000000000000000e+00  0.0000000000000000e+00
2.472000000000000e+00  0.0000000000000000e+00  0.0000000000000000e+00  7.0710678118654746e-01  0.0000000000000000e+00  7.0710678118654746e-01  0.0000000000000000e+00  0.0000000000000000e+00  0.0000000000000000e+00
                         7.0710678118654746e-01  0.0000000000000000e+00  0.0000000000000000e+00  0.0000000000000000e+00  0.0000000000000000e+00  0.0000000000000000e+00  7.0710678118654746e-01  1.8000000000000000e+02
                         7.0710678118654746e-01  0.0000000000000000e+00  0.0000000000000000e+00  0.0000000000000000e+00  0.0000000000000000e+00  0.0000000000000000e+00  7.0710678118654746e-01  0.0000000000000000e+00
                         0.0000000000000000e+00  0.0000000000000000e+00  7.0710678118654746e-01  1.8000000000000000e+02  7.0710678118654746e-01  0.0000000000000000e+00  0.0000000000000000e+00  0.0000000000000000e+00
2.473000000000000e+00  0.0000000000000000e+00  0.0000000000000000e+00  7.0710678118654746e-01  0.0000000000000000e+00  7.0710678118654746e-01  0.0000000000000000e+00  0.0000000000000000e+00  0.0000000000000000e+00
                         7.0710678118654746e-01  0.0000000000000000e+00  0.0000000000000000e+00  0.0000000000000000e+00  0.0000000000000000e+00  0.0000000000000000e+00  7.0710678118654746e-01  1.8000000000000000e+02
                         7.0710678118654746e-01  0.0000000000000000e+00  0.0000000000000000e+00  0.0000000000000000e+00  0.0000000000000000e+00  0.0000000000000000e+00  7.0710678118654746e-01  0.0000000000000000e+00
                         0.0000000000000000e+00  0.0000000000000000e+00  7.0710678118654746e-01  1.8000000000000000e+02  7.0710678118654746e-01  0.0000000000000000e+00  0.0000000000000000e+00  0.0000000000000000e+00
2.474000000000000e+00  0.0000000000000000e+00  0.0000000000000000e+00  7.0710678118654746e-01  0.0000000000000000e+00  7.0710678118654746e-01  0.0000000000000000e+00  0.0000000000000000e+00  0.0000000000000000e+00
                         7.0710678118654746e-01  0.0000000000000000e+00  0.0000000000000000e+00  0.0000000000000000e+00  0.0000000000000000e+00  0.0000000000000000e+00  7.0710678118654746e-01  1.8000000000000000e+02
                         7.0710678118654746e-01  0.0000000000000000e+00  0.0000000000000000e+00  0.0000000000000000e+00  0.0000000000000000e+00  0.0000000000000000e+00  7.0710678118654746e-01  0.0000000000000000e+00
                         0.0000000000000000e+00  0.0000000000000000e+00  7.0710678118654746e-01  1.8000000000000000e+02  7.0710678118654746e-01  0.0000000000000000e+00  0.0000000000000000e+00  0.0000000000000000e+00
2.475000000000000e+00  0.0000000000000000e+00  0.0000000000000000e+00  7.0710678118654746e-01  0.0000000000000000e+00  7.0710678118654746e-01  0.0000000000000000e+00  0.0000000000000000e+00  0.0000000000000000e+00
                         7.0710678118654746e-01  0.0000000000000000e+00  0.0000000000000000e+00  0.0000000000000000e+00  0.0000000000000000e+00  0.0000000000000000e+00  7.0710678118654746e-01  1.8000000000000000e+02
                         7.0710678118654746e-01  0.0000000000000000e+00  0.0000000000000000e+00  0.0000000000000000e+00  0.0000000000000000e+00  0.0000000000000000e+00  7.0710678118654746e-01  0.0000000000000000e+00
                         0.0000000000000000e+00  0.0000000000000000e+00  7.0710678118654746e-01  1.8000000000000000e+02  7.0710678118654746e-01  0.0000000000000000e+00  0.0000000000000000e+00  0.0000000000000000e+00
2.476000000000000e+00  0.0000000000000000e+00  0.0000000000000000e+00  7.0710678118654746e-01  0.0000000000000000e+00  7.0710678118654746e-01  0.0000000000000000e+00  0.0000000000000000e+00  0.0000000000000000e+00
                         7.0710678118654746e-01  0.0000000000000000e+00  0.0000000000000000e+00  0.0000000000000000e+00  0.0000000000000000e+00  0.0000000000000000e+00  7.0710678118654746e-01  1.8000000000000000e+02
                         7.0710678118654746e-01  0.0000000000000000e+00  0.0000000000000000e+00  0.0000000000000000e+00  0.0000000000000000e+00  0.0000000000000000e+00  7.0710678118654746e-01  0.0000000000000000e+00
                         0.0000000000000000e+00  0.0000000000000000e+00  7.0710678118654746e-01  1.8000000000000000e+02  7.0710678118654746e-01  0.0000000000000000e+00  0.0000000000000000e+00  0.0000000000000000e+00
2.477000000000000e+00  0.0000000000000000e+00  0.0000000000000000e+00  7.0710678118654746e-01  0.0000000000000000e+00  7.0710678118654746e-01  0.0000000000000000e+00  0.0000000000000000e+00  0.0000000000000000e+00
                         7.0710678118654746e-01  0.0000000000000000e+00  0.0000000000000000e+00  0.0000000000000000e+00  0.0000000000000000e+00  0.0000000000000000e+00  7.0710678118654746e-01  1.8000000000000000e+02
                         7.0710678118654746e-01  0.0000000000000000e+00  0.0000000000000000e+00  0.0000000000000000e+00  0.0000000000000000e+00  0.0000000000000000e+00  7.0710678118654746e-01  0.0000000000000000e+00
                         0.0000000000000000e+00  0.0000000000000000e+00  7.0710678118654746e-01  1.8000000000000000e+02  7.0710678118654746e-01  0.0000000000000000e+00  0.0000000000000000e+00  0.0000000000000000e+00
2.478000000000000e+00  0.0000000000000000e+00  0.0000000000000000e+00  7.0710678118654746e-01  0.0000000000000000e+00  7.0710678118654746e-01  0.0000000000000000e+00  0.0000000000000000e+00  0.0000000000000000e+00
                         7.0710678118654746e-01  0.0000000000000000e+00  0.0000000000000000e+00  0.0000000000000000e+00  0.0000000000000000e+00  0.0000000000000000e+00  7.0710678118654746e-01  1.8000000000000000e+02
                         7.0710678118654746e-01  0.0000000000000000e+00  0.0000000000000000e+00  0.0000000000000000e+00  0.0000000000000000e+00  0.0000000000000000e+00  7.0710678118654746e-01  0.0000000000000000e+00
                         0.0000000000000000e+00  0.0000000000000000e+00  7.0710678118654746e-01  1.8000000000000000e+02  7.0710678118654746e-01  0.0000000000000000e+00  0.0000000000000000e+00  0.0000000000000000e+00
2.479000000000000e+00  0.0000000000000000e+00  0.0000000000000000e+00  7.0710678118654746e-01  0.0000000000000000e+00  7.0710678118654746e-01  0.0000000000000000e+00  0.0000000000000000e+00  0.0000000000000000e+00
                         7.0710678118654746e-01  0.0000000000000000e+00  0.0000000000000000e+00  0.0000000000000000e+00  0.0000000000000000e+00  0.0000000000000000e+00  7.0710678118654746e-01  1.8000000000000000e+02
                         7.0710678118654746e-01  0.0000000000000000e+00  0.0000000000000000e+00  0.0000000000000000e+00  0.0000000000000000e+00  0.0000000000000000e+00  7.0710678118654746e-01  0.0000000000000000e+00
                         0.0000000000000000e+00  0.0000000000000000e+00  7.0710678118654746e-01  1.8000000000000000e+02  7.0710678118654746e-01  0.0000000000000000e+00  0.0000000000000000e+00  0.0000000000000000e+00
2.480000000000000e+00  0.0000000000000000e+00  0.0000000000000000e+00  7.0710678118654746e-01  0.0000000000000000e+00  7.0710678118654746e-01  0.0000000000000000e+00  0.0000000000000000e+00  0.0000000000000000e+00
                         7.0710678118654746e-01  0.0000000000000000e+00  0.0000000000000000e+00  0.0000000000000000e+00  0.0000000000000000e+00  0.0000000000000000e+00  7.0710678118654746e-01  1.8000000000000000e+02
                         7.0710678118654746e-01  0.0000000000000000e+00  0.0000000000000000e+00  0.0000000000000000e+00  0.0000000000000000e+00  0.0000000000000000e+00  7.0710678118654746e-01  0.0000000000000000e+00
                         0.0000000000000000e+00  0.0000000000000000e+00  7.0710678118654746e-01  1.8000000000000000e+02  7.0710678118654746e-01  0.0000000000000000e+00  0.0000000000000000e+00  0.0000000000000000e+00
2.481000000000000e+00  0.0000000000000000e+00  0.0000000000000000e+00  7.0710678118654746e-01  0.0000000000000000e+00  7.0710678118654746e-01  0.0000000000000000e+00  0.0000000000000000e+00  0.0000000000000000e+00
                         7.0710678118654746e-01  0.0000000000000000e+00  0.0000000000000000e+00  0.0000000000000000e+00  0.0000000000000000e+00  0.0000000000000000e+00  7.0710678118654746e-01  1.8000000000000000e+02
                         7.0710678118654746e-01  0.0000000000000000e+00  0.0000000000000000e+00  0.0000000000000000e+00  0.0000000000000000e+00  0.0000000000000000e+00  7.0710678118654746e-01  0.0000000000000000e+00
                         0.0000000000000000e+00  0.0000000000000000e+00  7.0710678118654746e-01  1.8000000000000000e+02  7.0710678118654746e-01  0.0000000000000000e+00  0.0000000000000000e+00  0.0000000000000000e+00
2.482000000000000e+00  0.0000000000000000e+00  0.0000000000000000e+00  7.0710678118654746e-01  0.0000000000000000e+00  7.0710678118654746e-01  0.0000000000000000e+00  0.0000000000000000e+00  0.0000000000000000e+00
                         7.0710678118654746e-01  0.0000000000000000e+00  0.0000000000000000e+00  0.0000000000000000e+00  0.0000000000000000e+00  0.0000000000000000e+00  7.0710678118654746e-01  1.8000000000000000e+02
                         7.0710678118654746e-01  0.0000000000000000e+00  0.0000000000000000e+00  0.0000000000000000e+00  0.0000000000000000e+00  0.0000000000000000e+00  7.0710678118654746e-01  0.0000000000000000e+00
                         0.0000000000000000e+00  0.0000000000000000e+00  7.0710678118654746e-01  1.8000000000000000e+02  7.0710678118654746e-01  0.0000000000000000e+00  0.0000000000000000e+00  0.0000000000000000e+00
2.483000000000000e+00  0.0000000000000000e+00  0.0000000000000000e+00  7.0710678118654746e-01  0.0000000000000000e+00  7.0710678118654746e-01  0.0000000000000000e+00  0.0000000000000000e+00  0.0000000000000000e+00
                         7.0710678118654746e-01  0.0000000000000000e+00  0.0000000000000000e+00  0.0000000000000000e+00  0.0000000000000000e+00  0.0000000000000000e+00  7.0710678118654746e-01  1.8000000000000000e+02
                         7.0710678118654746e-01  0.0000000000000000e+00  0.0000000000000000e+00  0.0000000000000000e+00  0.0000000000000000e+00  0.0000000000000000e+00  7.0710678118654746e-01  0.0000000000000000e+00
                         0.0000000000000000e+00  0.0000000000000000e+00  7.0710678118654746e-01  1.8000000000000000e+02  7.0710678118654746e-01  0.0000000000000000e+00  0.0000000000000000e+00  0.0000000000000000e+00
2.484000000000000e+00  0.0000000000000000e+00  0.0000000000000000e+00  7.0710678118654746e-01  0.0000000000000000e+00  7.0710678118654746e-01  0.0000000000000000e+00  0.0000000000000000e+00  0.0000000000000000e+00
                         7.0710678118654746e-01  0.0000000000000000e+00  0.0000000000000000e+00  0.0000000000000000e+00  0.0000000000000000e+00  0.0000000000000000e+00  7.0710678118654746e-01  1.8000000000000000e+02
                         7.0710678118654746e-01  0.0000000000000000e+00  0.0000000000000000e+00  0.0000000000000000e+00  0.0000000000000000e+00  0.0000000000000000e+00  7.0710678118654746e-01  0.0000000000000000e+00
                         0.0000000000000000e+00  0.0000000000000000e+00  7.0710678118654746e-01  1.8000000000000000e+02  7.0710678118654746e-01  0.0000000000000000e+00  0.0000000000000000e+00  0.0000000000000000e+00
2.485000000000000e+00  0.0000000000000000e+00  0.0000000000000000e+00  7.0710678118654746e-01  0.0000000000000000e+00  7.0710678118654746e-01  0.0000000000000000e+00  0.0000000000000000e+00  0.0000000000000000e+00
                         7.0710678118654746e-01  0.0000000000000000e+00  0.0000000000000000e+00  0.0000000000000000e+00  0.0000000000000000e+00  0.0000000000000000e+00  7.0710678118654746e-01  1.8000000000000000e+02
                         7.0710678118654746e-01  0.0000000000000000e+00  0.0000000000000000e+00  0.0000000000000000e+00  0.0000000000000000e+00  0.0000000000000000e+00  7.0710678118654746e-01  0.0000000000000000e+00
                         0.0000000000000000e+00  0.0000000000000000e+00  7.0710678118654746e-01  1.8000000000000000e+02  7.0710678118654746e-01  0.0000000000000000e+00  0.0000000000000000e+00  0.0000000000000000e+00
2.486000000000000e+00  0.0000000000000000e+00  0.0000000000000000e+00  7.0710678118654746e-01  0.0000000000000000e+00  7.0710678118654746e-01  0.0000000000000000e+00  0.0000000000000000e+00  0.0000000000000000e+00
                         7.0710678118654746e-01  0.0000000000000000e+00  0.0000000000000000e+00  0.0000000000000000e+00  0.0000000000000000e+00  0.0000000000000000e+00  7.0710678118654746e-01  1.8000000000000000e+02
                         7.0710678118654746e-01  0.0000000000000000e+00  0.0000000000000000e+00  0.0000000000000000e+00  0.0000000000000000e+00  0.0000000000000000e+00  7.0710678118654746e-01  0.0000000000000000e+00
                         0.0000000000000000e+00  0.0000000000000000e+00  7.0710678118654746e-01  1.8000000000000000e+02  7.0710678118654746e-01  0.0000000000000000e+00  0.0000000000000000e+00  0.0000000000000000e+00
2.487000000000000e+00  0.0000000000000000e+00  0.0000000000000000e+00  7.0710678118654746e-01  0.0000000000000000e+00  7.0710678118654746e-01  0.0000000000000000e+00  0.0000000000000000e+00  0.0000000000000000e+00
                         7.0710678118654746e-01  0.0000000000000000e+00  0.0000000000000000e+00  0.0000000000000000e+00  0.0000000000000000e+00  0.0000000000000000e+00  7.0710678118654746e-01  1.8000000000000000e+02
                         7.0710678118654746e-01  0.0000000000000000e+00  0.0000000000000000e+00  0.0000000000000000e+00  0.0000000000000000e+00  0.0000000000000000e+00  7.0710678118654746e-01  0.0000000000000000e+00
                         0.0000000000000000e+00  0.0000000000000000e+00  7.0710678118654746e-01  1.8000000000000000e+02  7.0710678118654746e-01  0.0000000000000000e+00  0.0000000000000000e+00  0.0000000000000000e+00
2.488000000000000e+00  0.0000000000000000e+00  0.0000000000000000e+00  7.0710678118654746e-01  0.0000000000000000e+00  7.0710678118654746e-01  0.0000000000000000e+00  0.0000000000000000e+00  0.0000000000000000e+00
                         7.0710678118654746e-01  0.0000000000000000e+00  0.0000000000000000e+00  0.0000000000000000e+00  0.0000000000000000e+00  0.0000000000000000e+00  7.0710678118654746e-01  1.8000000000000000e+02
                         7.0710678118654746e-01  0.0000000000000000e+00  0.0000000000000000e+00  0.0000000000000000e+00  0.0000000000000000e+00  0.0000000000000000e+00  7.0710678118654746e-01  0.0000000000000000e+00
                         0.0000000000000000e+00  0.0000000000000000e+00  7.0710678118654746e-01  1.8000000000000000e+02  7.0710678118654746e-01  0.0000000000000000e+00  0.0000000000000000e+00  0.0000000000000000e+00
2.489000000000000e+00  0.0000000000000000e+00  0.0000000000000000e+00  7.0710678118654746e-01  0.0000000000000000e+00  7.0710678118654746e-01  0.0000000000000000e+00  0.0000000000000000e+00  0.0000000000000000e+00
                         7.0710678118654746e-01  0.0000000000000000e+00  0.0000000000000000e+00  0.0000000000000000e+00  0.0000000000000000e+00  0.0000000000000000e+00  7.0710678118654746e-01  1.8000000000000000e+02
                         7.0710678118654746e-01  0.0000000000000000e+00  0.0000000000000000e+00  0.0000000000000000e+00  0.0000000000000000e+00  0.0000000000000000e+00  7.0710678118654746e-01  0.0000000000000000e+00
                         0.0000000000000000e+00  0.0000000000000000e+00  7.0710678118654746e-01  1.8000000000000000e+02  7.0710678118654746e-01  0.0000000000000000e+00  0.0000000000000000e+00  0.0000000000000000e+00
2.490000000000000e+00  0.0000000000000000e+00  0.0000000000000000e+00  7.0710678118654746e-01  0.0000000000000000e+00  7.0710678118654746e-01  0.0000000000000000e+00  0.0000000000000000e+00  0.0000000000000000e+00
                         7.0710678118654746e-01  0.0000000000000000e+00  0.0000000000000000e+00  0.0000000000000000e+00  0.0000000000000000e+00  0.0000000000000000e+00  7.0710678118654746e-01  1.8000000000000000e+02
                         7.0710678118654746e-01  0.0000000000000000e+00  0.0000000000000000e+00  0.0000000000000000e+00  0.0000000000000000e+00  0.0000000000000000e+00  7.0710678118654746e-01  0.0000000000000000e+00
                         0.0000000000000000e+00  0.0000000000000000e+00  7.0710678118654746e-01  1.8000000000000000e+02  7.0710678118654746e-01  0.0000000000000000e+00  0.0000000000000000e+00  0.0000000000000000e+00
2.491000000000000e+00  0.0000000000000000e+00  0.0000000000000000e+00  7.0710678118654746e-01  0.0000000000000000e+00  7.0710678118654746e-01  0.0000000000000000e+00  0.0000000000000000e+00  0.0000000000000000e+00
                         7.0710678118654746e-01  0.0000000000000000e+00  0.0000000000000000e+00  0.0000000000000000e+00  0.0000000000000000e+00  0.0000000000000000e+00  7.0710678118654746e-01  1.8000000000000000e+02
                         7.0710678118654746e-01  0.0000000000000000e+00  0.0000000000000000e+00  0.0000000000000000e+00  0.0000000000000000e+00  0.0000000000000000e+00  7.0710678118654746e-01  0.0000000000000000e+00
                         0.0000000000000000e+00  0.0000000000000000e+00  7.0710678118654746e-01  1.8000000000000000e+02  7.0710678118654746e-01  0.0000000000000000e+00  0.0000000000000000e+00  0.0000000000000000e+00
2.492000000000000e+00  0.0000000000000000e+00  0.0000000000000000e+00  7.0710678118654746e-01  0.0000000000000000e+00  7.0710678118654746e-01  0.0000000000000000e+00  0.0000000000000000e+00  0.0000000000000000e+00
                         7.0710678118654746e-01  0.0000000000000000e+00  0.0000000000000000e+00  0.0000000000000000e+00  0.0000000000000000e+00  0.0000000000000000e+00  7.0710678118654746e-01  1.8000000000000000e+02
                         7.0710678118654746e-01  0.0000000000000000e+00  0.0000000000000000e+00  0.0000000000000000e+00  0.0000000000000000e+00  0.0000000000000000e+00  7.0710678118654746e-01  0.0000000000000000e+00
                         0.0000000000000000e+00  0.0000000000000000e+00  7.0710678118654746e-01  1.8000000000000000e+02  7.0710678118654746e-01  0.0000000000000000e+00  0.0000000000000000e+00  0.0000000000000000e+00
2.493000000000000e+00  0.0000000000000000e+00  0.0000000000000000e+00  7.0710678118654746e-01  0.0000000000000000e+00  7.0710678118654746e-01  0.0000000000000000e+00  0.0000000000000000e+00  0.0000000000000000e+00
                         7.0710678118654746e-01  0.0000000000000000e+00  0.0000000000000000e+00  0.0000000000000000e+00  0.0000000000000000e+00  0.0000000000000000e+00  7.0710678118654746e-01  1.8000000000000000e+02
                         7.0710678118654746e-01  0.0000000000000000e+00  0.0000000000000000e+00  0.0000000000000000e+00  0.0000000000000000e+00  0.0000000000000000e+00  7.0710678118654746e-01  0.0000000000000000e+00
                         0.0000000000000000e+00  0.0000000000000000e+00  7.0710678118654746e-01  1.8000000000000000e+02  7.0710678118654746e-01  0.0000000000000000e+00  0.0000000000000000e+00  0.0000000000000000e+00
2.494000000000000e+00  0.0000000000000000e+00  0.0000000000000000e+00  7.0710678118654746e-01  0.0000000000000000e+00  7.0710678118654746e-01  0.0000000000000000e+00  0.0000000000000000e+00  0.0000000000000000e+00
                         7.0710678118654746e-01  0.0000000000000000e+00  0.0000000000000000e+00  0.0000000000000000e+00  0.0000000000000000e+00  0.0000000000000000e+00  7.0710678118654746e-01  1.8000000000000000e+02
                         7.0710678118654746e-01  0.0000000000000000e+00  0.0000000000000000e+00  0.0000000000000000e+00  0.0000000000000000e+00  0.0000000000000000e+00  7.0710678118654746e-01  0.0000000000000000e+00
                         0.0000000000000000e+00  0.0000000000000000e+00  7.0710678118654746e-01  1.8000000000000000e+02  7.0710678118654746e-01  0.0000000000000000e+00  0.0000000000000000e+00  0.0000000000000000e+00
2.495000000000000e+00  0.0000000000000000e+00  0.0000000000000000e+00  7.0710678118654746e-01  0.0000000000000000e+00  7.0710678118654746e-01  0.0000000000000000e+00  0.0000000000000000e+00  0.0000000000000000e+00
                         7.0710678118654746e-01  0.0000000000000000e+00  0.0000000000000000e+00  0.0000000000000000e+00  0.0000000000000000e+00  0.0000000000000000e+00  7.0710678118654746e-01  1.8000000000000000e+02
                         7.0710678118654746e-01  0.0000000000000000e+00  0.0000000000000000e+00  0.0000000000000000e+00  0.0000000000000000e+00  0.0000000000000000e+00  7.0710678118654746e-01  0.0000000000000000e+00
                         0.0000000000000000e+00  0.0000000000000000e+00  7.0710678118654746e-01  1.8000000000000000e+02  7.0710678118654746e-01  0.0000000000000000e+00  0.0000000000000000e+00  0.0000000000000000e+00
2.496000000000000e+00  0.0000000000000000e+00  0.0000000000000000e+00  7.0710678118654746e-01  0.0000000000000000e+00  7.0710678118654746e-01  0.0000000000000000e+00  0.0000000000000000e+00  0.0000000000000000e+00
                         7.0710678118654746e-01  0.0000000000000000e+00  0.0000000000000000e+00  0.0000000000000000e+00  0.0000000000000000e+00  0.0000000000000000e+00  7.0710678118654746e-01  1.8000000000000000e+02
                         7.0710678118654746e-01  0.0000000000000000e+00  0.0000000000000000e+00  0.0000000000000000e+00  0.0000000000000000e+00  0.0000000000000000e+00  7.0710678118654746e-01  0.0000000000000000e+00
                         0.0000000000000000e+00  0.0000000000000000e+00  7.0710678118654746e-01  1.8000000000000000e+02  7.0710678118654746e-01  0.0000000000000000e+00  0.0000000000000000e+00  0.0000000000000000e+00
2.497000000000000e+00  0.0000000000000000e+00  0.0000000000000000e+00  7.0710678118654746e-01  0.0000000000000000e+00  7.0710678118654746e-01  0.0000000000000000e+00  0.0000000000000000e+00  0.0000000000000000e+00
                         7.0710678118654746e-01  0.0000000000000000e+00  0.0000000000000000e+00  0.0000000000000000e+00  0.0000000000000000e+00  0.0000000000000000e+00  7.0710678118654746e-01  1.8000000000000000e+02
                         7.0710678118654746e-01  0.0000000000000000e+00  0.0000000000000000e+00  0.0000000000000000e+00  0.0000000000000000e+00  0.0000000000000000e+00  7.0710678118654746e-01  0.0000000000000000e+00
                         0.0000000000000000e+00  0.0000000000000000e+00  7.0710678118654746e-01  1.8000000000000000e+02  7.0710678118654746e-01  0.0000000000000000e+00  0.0000000000000000e+00  0.0000000000000000e+00
2.498000000000000e+00  0.0000000000000000e+00  0.0000000000000000e+00  7.0710678118654746e-01  0.0000000000000000e+00  7.0710678118654746e-01  0.0000000000000000e+00  0.0000000000000000e+00  0.0000000000000000e+00
                         7.0710678118654746e-01  0.0000000000000000e+00  0.0000000000000000e+00  0.0000000000000000e+00  0.0000000000000000e+00  0.0000000000000000e+00  7.0710678118654746e-01  1.8000000000000000e+02
                         7.0710678118654746e-01  0.0000000000000000e+00  0.0000000000000000e+00  0.0000000000000000e+00  0.0000000000000000e+00  0.0000000000000000e+00  7.0710678118654746e-01  0.0000000000000000e+00
                         0.0000000000000000e+00  0.0000000000000000e+00  7.0710678118654746e-01  1.8000000000000000e+02  7.0710678118654746e-01  0.0000000000000000e+00  0.0000000000000000e+00  0.0000000000000000e+00
2.499000000000000e+00  0.0000000000000000e+00  0.0000000000000000e+00  7.0710678118654746e-01  0.0000000000000000e+00  7.0710678118654746e-01  0.0000000000000000e+00  0.0000000000000000e+00  0.0000000000000000e+00
                         7.0710678118654746e-01  0.0000000000000000e+00  0.0000000000000000e+00  0.0000000000000000e+00  0.0000000000000000e+00  0.0000000000000000e+00  7.0710678118654746e-01  1.8000000000000000e+02
                         7.0710678118654746e-01  0.0000000000000000e+00  0.0000000000000000e+00  0.0000000000000000e+00  0.0000000000000000e+00  0.0000000000000000e+00  7.0710678118654746e-01  0.0000000000000000e+00
                         0.0000000000000000e+00  0.0000000000000000e+00  7.0710678118654746e-01  1.8000000000000000e+02  7.0710678118654746e-01  0.0000000000000000e+00  0.0000000000000000e+00  0.0000000000000000e+00
2.500000000000000e+00  0.0000000000000000e+00  0.0000000000000000e+00  7.0710678118654746e-01  0.0000000000000000e+00  7.0710678118654746e-01  0.0000000000000000e+00  0.0000000000000000e+00  0.0000000000000000e+00
                         7.0710678118654746e-01  0.0000000000000000e+00  0.0000000000000000e+00  0.0000000000000000e+00  0.0000000000000000e+00  0.0000000000000000e+00  7.0710678118654746e-01  1.8000000000000000e+02
                         7.0710678118654746e-01  0.0000000000000000e+00  0.0000000000000000e+00  0.0000000000000000e+00  0.0000000000000000e+00  0.0000000000000000e+00  7.0710678118654746e-01  0.0000000000000000e+00
                         0.0000000000000000e+00  0.0000000000000000e+00  7.0710678118654746e-01  1.8000000000000000e+02  7.0710678118654746e-01  0.0000000000000000e+00  0.0000000000000000e+00  0.0000000000000000e+00
2.501000000000000e+00  0.0000000000000000e+00  0.0000000000000000e+00  7.0710678118654746e-01  0.0000000000000000e+00  7.0710678118654746e-01  0.0000000000000000e+00  0.0000000000000000e+00  0.0000000000000000e+00
                         7.0710678118654746e-01  0.0000000000000000e+00  0.0000000000000000e+00  0.0000000000000000e+00  0.0000000000000000e+00  0.0000000000000000e+00  7.0710678118654746e-01  1.8000000000000000e+02
                         7.0710678118654746e-01  0.0000000000000000e+00  0.0000000000000000e+00  0.0000000000000000e+00  0.0000000000000000e+00  0.0000000000000000e+00  7.0710678118654746e-01  0.0000000000000000e+00
                         0.0000000000000000e+00  0.0000000000000000e+00  7.0710678118654746e-01  1.8000000000000000e+02  7.0710678118654746e-01  0.0000000000000000e+00  0.0000000000000000e+00  0.0000000000000000e+00
2.502000000000000e+00  0.0000000000000000e+00  0.0000000000000000e+00  7.0710678118654746e-01  0.0000000000000000e+00  7.0710678118654746e-01  0.0000000000000000e+00  0.0000000000000000e+00  0.0000000000000000e+00
                         7.0710678118654746e-01  0.0000000000000000e+00  0.0000000000000000e+00  0.0000000000000000e+00  0.0000000000000000e+00  0.0000000000000000e+00  7.0710678118654746e-01  1.8000000000000000e+02
                         7.0710678118654746e-01  0.0000000000000000e+00  0.0000000000000000e+00  0.0000000000000000e+00  0.0000000000000000e+00  0.0000000000000000e+00  7.0710678118654746e-01  0.0000000000000000e+00
                         0.0000000000000000e+00  0.0000000000000000e+00  7.0710678118654746e-01  1.8000000000000000e+02  7.0710678118654746e-01  0.0000000000000000e+00  0.0000000000000000e+00  0.0000000000000000e+00
2.503000000000000e+00  0.0000000000000000e+00  0.0000000000000000e+00  7.0710678118654746e-01  0.0000000000000000e+00  7.0710678118654746e-01  0.0000000000000000e+00  0.0000000000000000e+00  0.0000000000000000e+00
                         7.0710678118654746e-01  0.0000000000000000e+00  0.0000000000000000e+00  0.0000000000000000e+00  0.0000000000000000e+00  0.0000000000000000e+00  7.0710678118654746e-01  1.8000000000000000e+02
                         7.0710678118654746e-01  0.0000000000000000e+00  0.0000000000000000e+00  0.0000000000000000e+00  0.0000000000000000e+00  0.0000000000000000e+00  7.0710678118654746e-01  0.0000000000000000e+00
                         0.0000000000000000e+00  0.0000000000000000e+00  7.0710678118654746e-01  1.8000000000000000e+02  7.0710678118654746e-01  0.0000000000000000e+00  0.0000000000000000e+00  0.0000000000000000e+00
2.504000000000000e+00  0.0000000000000000e+00  0.0000000000000000e+00  7.0710678118654746e-01  0.0000000000000000e+00  7.0710678118654746e-01  0.0000000000000000e+00  0.0000000000000000e+00  0.0000000000000000e+00
                         7.0710678118654746e-01  0.0000000000000000e+00  0.0000000000000000e+00  0.0000000000000000e+00  0.0000000000000000e+00  0.0000000000000000e+00  7.0710678118654746e-01  1.8000000000000000e+02
                         7.0710678118654746e-01  0.0000000000000000e+00  0.0000000000000000e+00  0.0000000000000000e+00  0.0000000000000000e+00  0.0000000000000000e+00  7.0710678118654746e-01  0.0000000000000000e+00
                         0.0000000000000000e+00  0.0000000000000000e+00  7.0710678118654746e-01  1.8000000000000000e+02  7.0710678118654746e-01  0.0000000000000000e+00  0.0000000000000000e+00  0.0000000000000000e+00
2.505000000000000e+00  0.0000000000000000e+00  0.0000000000000000e+00  7.0710678118654746e-01  0.0000000000000000e+00  7.0710678118654746e-01  0.0000000000000000e+00  0.0000000000000000e+00  0.0000000000000000e+00
                         7.0710678118654746e-01  0.0000000000000000e+00  0.0000000000000000e+00  0.0000000000000000e+00  0.0000000000000000e+00  0.0000000000000000e+00  7.0710678118654746e-01  1.8000000000000000e+02
                         7.0710678118654746e-01  0.0000000000000000e+00  0.0000000000000000e+00  0.0000000000000000e+00  0.0000000000000000e+00  0.0000000000000000e+00  7.0710678118654746e-01  0.0000000000000000e+00
                         0.0000000000000000e+00  0.0000000000000000e+00  7.0710678118654746e-01  1.8000000000000000e+02  7.0710678118654746e-01  0.0000000000000000e+00  0.0000000000000000e+00  0.0000000000000000e+00
2.506000000000000e+00  0.0000000000000000e+00  0.0000000000000000e+00  7.0710678118654746e-01  0.0000000000000000e+00  7.0710678118654746e-01  0.0000000000000000e+00  0.0000000000000000e+00  0.0000000000000000e+00
                         7.0710678118654746e-01  0.0000000000000000e+00  0.0000000000000000e+00  0.0000000000000000e+00  0.0000000000000000e+00  0.0000000000000000e+00  7.0710678118654746e-01  1.8000000000000000e+02
                         7.0710678118654746e-01  0.0000000000000000e+00  0.0000000000000000e+00  0.0000000000000000e+00  0.0000000000000000e+00  0.0000000000000000e+00  7.0710678118654746e-01  0.0000000000000000e+00
                         0.0000000000000000e+00  0.0000000000000000e+00  7.0710678118654746e-01  1.8000000000000000e+02  7.0710678118654746e-01  0.0000000000000000e+00  0.0000000000000000e+00  0.0000000000000000e+00
2.507000000000000e+00  0.0000000000000000e+00  0.0000000000000000e+00  7.0710678118654746e-01  0.0000000000000000e+00  7.0710678118654746e-01  0.0000000000000000e+00  0.0000000000000000e+00  0.0000000000000000e+00
                         7.0710678118654746e-01  0.0000000000000000e+00  0.0000000000000000e+00  0.0000000000000000e+00  0.0000000000000000e+00  0.0000000000000000e+00  7.0710678118654746e-01  1.8000000000000000e+02
                         7.0710678118654746e-01  0.0000000000000000e+00  0.0000000000000000e+00  0.0000000000000000e+00  0.0000000000000000e+00  0.0000000000000000e+00  7.0710678118654746e-01  0.0000000000000000e+00
                         0.0000000000000000e+00  0.0000000000000000e+00  7.0710678118654746e-01  1.8000000000000000e+02  7.0710678118654746e-01  0.0000000000000000e+00  0.0000000000000000e+00  0.0000000000000000e+00
2.508000000000000e+00  0.0000000000000000e+00  0.0000000000000000e+00  7.0710678118654746e-01  0.0000000000000000e+00  7.0710678118654746e-01  0.0000000000000000e+00  0.0000000000000000e+00  0.0000000000000000e+00
                         7.0710678118654746e-01  0.0000000000000000e+00  0.0000000000000000e+00  0.0000000000000000e+00  0.0000000000000000e+00  0.0000000000000000e+00  7.0710678118654746e-01  1.8000000000000000e+02
                         7.0710678118654746e-01  0.0000000000000000e+00  0.0000000000000000e+00  0.0000000000000000e+00  0.0000000000000000e+00  0.0000000000000000e+00  7.0710678118654746e-01  0.0000000000000000e+00
                         0.0000000000000000e+00  0.0000000000000000e+00  7.0710678118654746e-01  1.8000000000000000e+02  7.0710678118654746e-01  0.0000000000000000e+00  0.0000000000000000e+00  0.0000000000000000e+00
2.509000000000000e+00  0.0000000000000000e+00  0.0000000000000000e+00  7.0710678118654746e-01  0.0000000000000000e+00  7.0710678118654746e-01  0.0000000000000000e+00  0.0000000000000000e+00  0.0000000000000000e+00
                         7.0710678118654746e-01  0.0000000000000000e+00  0.0000000000000000e+00  0.0000000000000000e+00  0.0000000000000000e+00  0.0000000000000000e+00  7.0710678118654746e-01  1.8000000000000000e+02
                         7.0710678118654746e-01  0.0000000000000000e+00  0.0000000000000000e+00  0.0000000000000000e+00  0.0000000000000000e+00  0.0000000000000000e+00  7.0710678118654746e-01  0.0000000000000000e+00
                         0.0000000000000000e+00  0.0000000000000000e+00  7.0710678118654746e-01  1.8000000000000000e+02  7.0710678118654746e-01  0.0000000000000000e+00  0.0000000000000000e+00  0.0000000000000000e+00
2.510000000000000e+00  0.0000000000000000e+00  0.0000000000000000e+00  7.0710678118654746e-01  0.0000000000000000e+00  7.0710678118654746e-01  0.0000000000000000e+00  0.0000000000000000e+00  0.0000000000000000e+00
                         7.0710678118654746e-01  0.0000000000000000e+00  0.0000000000000000e+00  0.0000000000000000e+00  0.0000000000000000e+00  0.0000000000000000e+00  7.0710678118654746e-01  1.8000000000000000e+02
                         7.0710678118654746e-01  0.0000000000000000e+00  0.0000000000000000e+00  0.0000000000000000e+00  0.0000000000000000e+00  0.0000000000000000e+00  7.0710678118654746e-01  0.0000000000000000e+00
                         0.0000000000000000e+00  0.0000000000000000e+00  7.0710678118654746e-01  1.8000000000000000e+02  7.0710678118654746e-01  0.0000000000000000e+00  0.0000000000000000e+00  0.0000000000000000e+00
2.511000000000000e+00  0.0000000000000000e+00  0.0000000000000000e+00  7.0710678118654746e-01  0.0000000000000000e+00  7.0710678118654746e-01  0.0000000000000000e+00  0.0000000000000000e+00  0.0000000000000000e+00
                         7.0710678118654746e-01  0.0000000000000000e+00  0.0000000000000000e+00  0.0000000000000000e+00  0.0000000000000000e+00  0.0000000000000000e+00  7.0710678118654746e-01  1.8000000000000000e+02
                         7.0710678118654746e-01  0.0000000000000000e+00  0.0000000000000000e+00  0.0000000000000000e+00  0.0000000000000000e+00  0.0000000000000000e+00  7.0710678118654746e-01  0.0000000000000000e+00
                         0.0000000000000000e+00  0.0000000000000000e+00  7.0710678118654746e-01  1.8000000000000000e+02  7.0710678118654746e-01  0.0000000000000000e+00  0.0000000000000000e+00  0.0000000000000000e+00
2.512000000000000e+00  0.0000000000000000e+00  0.0000000000000000e+00  7.0710678118654746e-01  0.0000000000000000e+00  7.0710678118654746e-01  0.0000000000000000e+00  0.0000000000000000e+00  0.0000000000000000e+00
                         7.0710678118654746e-01  0.0000000000000000e+00  0.0000000000000000e+00  0.0000000000000000e+00  0.0000000000000000e+00  0.0000000000000000e+00  7.0710678118654746e-01  1.8000000000000000e+02
                         7.0710678118654746e-01  0.0000000000000000e+00  0.0000000000000000e+00  0.0000000000000000e+00  0.0000000000000000e+00  0.0000000000000000e+00  7.0710678118654746e-01  0.0000000000000000e+00
                         0.0000000000000000e+00  0.0000000000000000e+00  7.0710678118654746e-01  1.8000000000000000e+02  7.0710678118654746e-01  0.0000000000000000e+00  0.0000000000000000e+00  0.0000000000000000e+00
2.513000000000000e+00  0.0000000000000000e+00  0.0000000000000000e+00  7.0710678118654746e-01  0.0000000000000000e+00  7.0710678118654746e-01  0.0000000000000000e+00  0.0000000000000000e+00  0.0000000000000000e+00
                         7.0710678118654746e-01  0.0000000000000000e+00  0.0000000000000000e+00  0.0000000000000000e+00  0.0000000000000000e+00  0.0000000000000000e+00  7.0710678118654746e-01  1.8000000000000000e+02
                         7.0710678118654746e-01  0.0000000000000000e+00  0.0000000000000000e+00  0.0000000000000000e+00  0.0000000000000000e+00  0.0000000000000000e+00  7.0710678118654746e-01  0.0000000000000000e+00
                         0.0000000000000000e+00  0.0000000000000000e+00  7.0710678118654746e-01  1.8000000000000000e+02  7.0710678118654746e-01  0.0000000000000000e+00  0.0000000000000000e+00  0.0000000000000000e+00
2.514000000000000e+00  0.0000000000000000e+00  0.0000000000000000e+00  7.0710678118654746e-01  0.0000000000000000e+00  7.0710678118654746e-01  0.0000000000000000e+00  0.0000000000000000e+00  0.0000000000000000e+00
                         7.0710678118654746e-01  0.0000000000000000e+00  0.0000000000000000e+00  0.0000000000000000e+00  0.0000000000000000e+00  0.0000000000000000e+00  7.0710678118654746e-01  1.8000000000000000e+02
                         7.0710678118654746e-01  0.0000000000000000e+00  0.0000000000000000e+00  0.0000000000000000e+00  0.0000000000000000e+00  0.0000000000000000e+00  7.0710678118654746e-01  0.0000000000000000e+00
                         0.0000000000000000e+00  0.0000000000000000e+00  7.0710678118654746e-01  1.8000000000000000e+02  7.0710678118654746e-01  0.0000000000000000e+00  0.0000000000000000e+00  0.0000000000000000e+00
2.515000000000000e+00  0.0000000000000000e+00  0.0000000000000000e+00  7.0710678118654746e-01  0.0000000000000000e+00  7.0710678118654746e-01  0.0000000000000000e+00  0.0000000000000000e+00  0.0000000000000000e+00
                         7.0710678118654746e-01  0.0000000000000000e+00  0.0000000000000000e+00  0.0000000000000000e+00  0.0000000000000000e+00  0.0000000000000000e+00  7.0710678118654746e-01  1.8000000000000000e+02
                         7.0710678118654746e-01  0.0000000000000000e+00  0.0000000000000000e+00  0.0000000000000000e+00  0.0000000000000000e+00  0.0000000000000000e+00  7.0710678118654746e-01  0.0000000000000000e+00
                         0.0000000000000000e+00  0.0000000000000000e+00  7.0710678118654746e-01  1.8000000000000000e+02  7.0710678118654746e-01  0.0000000000000000e+00  0.0000000000000000e+00  0.0000000000000000e+00
2.516000000000000e+00  0.0000000000000000e+00  0.0000000000000000e+00  7.0710678118654746e-01  0.0000000000000000e+00  7.0710678118654746e-01  0.0000000000000000e+00  0.0000000000000000e+00  0.0000000000000000e+00
                         7.0710678118654746e-01  0.0000000000000000e+00  0.0000000000000000e+00  0.0000000000000000e+00  0.0000000000000000e+00  0.0000000000000000e+00  7.0710678118654746e-01  1.8000000000000000e+02
                         7.0710678118654746e-01  0.0000000000000000e+00  0.0000000000000000e+00  0.0000000000000000e+00  0.0000000000000000e+00  0.0000000000000000e+00  7.0710678118654746e-01  0.0000000000000000e+00
                         0.0000000000000000e+00  0.0000000000000000e+00  7.0710678118654746e-01  1.8000000000000000e+02  7.0710678118654746e-01  0.0000000000000000e+00  0.0000000000000000e+00  0.0000000000000000e+00
2.517000000000000e+00  0.0000000000000000e+00  0.0000000000000000e+00  7.0710678118654746e-01  0.0000000000000000e+00  7.0710678118654746e-01  0.0000000000000000e+00  0.0000000000000000e+00  0.0000000000000000e+00
                         7.0710678118654746e-01  0.0000000000000000e+00  0.0000000000000000e+00  0.0000000000000000e+00  0.0000000000000000e+00  0.0000000000000000e+00  7.0710678118654746e-01  1.8000000000000000e+02
                         7.0710678118654746e-01  0.0000000000000000e+00  0.0000000000000000e+00  0.0000000000000000e+00  0.0000000000000000e+00  0.0000000000000000e+00  7.0710678118654746e-01  0.0000000000000000e+00
                         0.0000000000000000e+00  0.0000000000000000e+00  7.0710678118654746e-01  1.8000000000000000e+02  7.0710678118654746e-01  0.0000000000000000e+00  0.0000000000000000e+00  0.0000000000000000e+00
2.518000000000000e+00  0.0000000000000000e+00  0.0000000000000000e+00  7.0710678118654746e-01  0.0000000000000000e+00  7.0710678118654746e-01  0.0000000000000000e+00  0.0000000000000000e+00  0.0000000000000000e+00
                         7.0710678118654746e-01  0.0000000000000000e+00  0.0000000000000000e+00  0.0000000000000000e+00  0.0000000000000000e+00  0.0000000000000000e+00  7.0710678118654746e-01  1.8000000000000000e+02
                         7.0710678118654746e-01  0.0000000000000000e+00  0.0000000000000000e+00  0.0000000000000000e+00  0.0000000000000000e+00  0.0000000000000000e+00  7.0710678118654746e-01  0.0000000000000000e+00
                         0.0000000000000000e+00  0.0000000000000000e+00  7.0710678118654746e-01  1.8000000000000000e+02  7.0710678118654746e-01  0.0000000000000000e+00  0.0000000000000000e+00  0.0000000000000000e+00
2.519000000000000e+00  0.0000000000000000e+00  0.0000000000000000e+00  7.0710678118654746e-01  0.0000000000000000e+00  7.0710678118654746e-01  0.0000000000000000e+00  0.0000000000000000e+00  0.0000000000000000e+00
                         7.0710678118654746e-01  0.0000000000000000e+00  0.0000000000000000e+00  0.0000000000000000e+00  0.0000000000000000e+00  0.0000000000000000e+00  7.0710678118654746e-01  1.8000000000000000e+02
                         7.0710678118654746e-01  0.0000000000000000e+00  0.0000000000000000e+00  0.0000000000000000e+00  0.0000000000000000e+00  0.0000000000000000e+00  7.0710678118654746e-01  0.0000000000000000e+00
                         0.0000000000000000e+00  0.0000000000000000e+00  7.0710678118654746e-01  1.8000000000000000e+02  7.0710678118654746e-01  0.0000000000000000e+00  0.0000000000000000e+00  0.0000000000000000e+00
2.520000000000000e+00  0.0000000000000000e+00  0.0000000000000000e+00  7.0710678118654746e-01  0.0000000000000000e+00  7.0710678118654746e-01  0.0000000000000000e+00  0.0000000000000000e+00  0.0000000000000000e+00
                         7.0710678118654746e-01  0.0000000000000000e+00  0.0000000000000000e+00  0.0000000000000000e+00  0.0000000000000000e+00  0.0000000000000000e+00  7.0710678118654746e-01  1.8000000000000000e+02
                         7.0710678118654746e-01  0.0000000000000000e+00  0.0000000000000000e+00  0.0000000000000000e+00  0.0000000000000000e+00  0.0000000000000000e+00  7.0710678118654746e-01  0.0000000000000000e+00
                         0.0000000000000000e+00  0.0000000000000000e+00  7.0710678118654746e-01  1.8000000000000000e+02  7.0710678118654746e-01  0.0000000000000000e+00  0.0000000000000000e+00  0.0000000000000000e+00
2.521000000000000e+00  0.0000000000000000e+00  0.0000000000000000e+00  7.0710678118654746e-01  0.0000000000000000e+00  7.0710678118654746e-01  0.0000000000000000e+00  0.0000000000000000e+00  0.0000000000000000e+00
                         7.0710678118654746e-01  0.0000000000000000e+00  0.0000000000000000e+00  0.0000000000000000e+00  0.0000000000000000e+00  0.0000000000000000e+00  7.0710678118654746e-01  1.8000000000000000e+02
                         7.0710678118654746e-01  0.0000000000000000e+00  0.0000000000000000e+00  0.0000000000000000e+00  0.0000000000000000e+00  0.0000000000000000e+00  7.0710678118654746e-01  0.0000000000000000e+00
                         0.0000000000000000e+00  0.0000000000000000e+00  7.0710678118654746e-01  1.8000000000000000e+02  7.0710678118654746e-01  0.0000000000000000e+00  0.0000000000000000e+00  0.0000000000000000e+00
2.522000000000000e+00  0.0000000000000000e+00  0.0000000000000000e+00  7.0710678118654746e-01  0.0000000000000000e+00  7.0710678118654746e-01  0.0000000000000000e+00  0.0000000000000000e+00  0.0000000000000000e+00
                         7.0710678118654746e-01  0.0000000000000000e+00  0.0000000000000000e+00  0.0000000000000000e+00  0.0000000000000000e+00  0.0000000000000000e+00  7.0710678118654746e-01  1.8000000000000000e+02
                         7.0710678118654746e-01  0.0000000000000000e+00  0.0000000000000000e+00  0.0000000000000000e+00  0.0000000000000000e+00  0.0000000000000000e+00  7.0710678118654746e-01  0.0000000000000000e+00
                         0.0000000000000000e+00  0.0000000000000000e+00  7.0710678118654746e-01  1.8000000000000000e+02  7.0710678118654746e-01  0.0000000000000000e+00  0.0000000000000000e+00  0.0000000000000000e+00
2.523000000000000e+00  0.0000000000000000e+00  0.0000000000000000e+00  7.0710678118654746e-01  0.0000000000000000e+00  7.0710678118654746e-01  0.0000000000000000e+00  0.0000000000000000e+00  0.0000000000000000e+00
                         7.0710678118654746e-01  0.0000000000000000e+00  0.0000000000000000e+00  0.0000000000000000e+00  0.0000000000000000e+00  0.0000000000000000e+00  7.0710678118654746e-01  1.8000000000000000e+02
                         7.0710678118654746e-01  0.0000000000000000e+00  0.0000000000000000e+00  0.0000000000000000e+00  0.0000000000000000e+00  0.0000000000000000e+00  7.0710678118654746e-01  0.0000000000000000e+00
                         0.0000000000000000e+00  0.0000000000000000e+00  7.0710678118654746e-01  1.8000000000000000e+02  7.0710678118654746e-01  0.0000000000000000e+00  0.0000000000000000e+00  0.0000000000000000e+00
2.524000000000000e+00  0.0000000000000000e+00  0.0000000000000000e+00  7.0710678118654746e-01  0.0000000000000000e+00  7.0710678118654746e-01  0.0000000000000000e+00  0.0000000000000000e+00  0.0000000000000000e+00
                         7.0710678118654746e-01  0.0000000000000000e+00  0.0000000000000000e+00  0.0000000000000000e+00  0.0000000000000000e+00  0.0000000000000000e+00  7.0710678118654746e-01  1.8000000000000000e+02
                         7.0710678118654746e-01  0.0000000000000000e+00  0.0000000000000000e+00  0.0000000000000000e+00  0.0000000000000000e+00  0.0000000000000000e+00  7.0710678118654746e-01  0.0000000000000000e+00
                         0.0000000000000000e+00  0.0000000000000000e+00  7.0710678118654746e-01  1.8000000000000000e+02  7.0710678118654746e-01  0.0000000000000000e+00  0.0000000000000000e+00  0.0000000000000000e+00
2.525000000000000e+00  0.0000000000000000e+00  0.0000000000000000e+00  7.0710678118654746e-01  0.0000000000000000e+00  7.0710678118654746e-01  0.0000000000000000e+00  0.0000000000000000e+00  0.0000000000000000e+00
                         7.0710678118654746e-01  0.0000000000000000e+00  0.0000000000000000e+00  0.0000000000000000e+00  0.0000000000000000e+00  0.0000000000000000e+00  7.0710678118654746e-01  1.8000000000000000e+02
                         7.0710678118654746e-01  0.0000000000000000e+00  0.0000000000000000e+00  0.0000000000000000e+00  0.0000000000000000e+00  0.0000000000000000e+00  7.0710678118654746e-01  0.0000000000000000e+00
                         0.0000000000000000e+00  0.0000000000000000e+00  7.0710678118654746e-01  1.8000000000000000e+02  7.0710678118654746e-01  0.0000000000000000e+00  0.0000000000000000e+00  0.0000000000000000e+00
2.526000000000000e+00  0.0000000000000000e+00  0.0000000000000000e+00  7.0710678118654746e-01  0.0000000000000000e+00  7.0710678118654746e-01  0.0000000000000000e+00  0.0000000000000000e+00  0.0000000000000000e+00
                         7.0710678118654746e-01  0.0000000000000000e+00  0.0000000000000000e+00  0.0000000000000000e+00  0.0000000000000000e+00  0.0000000000000000e+00  7.0710678118654746e-01  1.8000000000000000e+02
                         7.0710678118654746e-01  0.0000000000000000e+00  0.0000000000000000e+00  0.0000000000000000e+00  0.0000000000000000e+00  0.0000000000000000e+00  7.0710678118654746e-01  0.0000000000000000e+00
                         0.0000000000000000e+00  0.0000000000000000e+00  7.0710678118654746e-01  1.8000000000000000e+02  7.0710678118654746e-01  0.0000000000000000e+00  0.0000000000000000e+00  0.0000000000000000e+00
2.527000000000000e+00  0.0000000000000000e+00  0.0000000000000000e+00  7.0710678118654746e-01  0.0000000000000000e+00  7.0710678118654746e-01  0.0000000000000000e+00  0.0000000000000000e+00  0.0000000000000000e+00
                         7.0710678118654746e-01  0.0000000000000000e+00  0.0000000000000000e+00  0.0000000000000000e+00  0.0000000000000000e+00  0.0000000000000000e+00  7.0710678118654746e-01  1.8000000000000000e+02
                         7.0710678118654746e-01  0.0000000000000000e+00  0.0000000000000000e+00  0.0000000000000000e+00  0.0000000000000000e+00  0.0000000000000000e+00  7.0710678118654746e-01  0.0000000000000000e+00
                         0.0000000000000000e+00  0.0000000000000000e+00  7.0710678118654746e-01  1.8000000000000000e+02  7.0710678118654746e-01  0.0000000000000000e+00  0.0000000000000000e+00  0.0000000000000000e+00
2.528000000000000e+00  0.0000000000000000e+00  0.0000000000000000e+00  7.0710678118654746e-01  0.0000000000000000e+00  7.0710678118654746e-01  0.0000000000000000e+00  0.0000000000000000e+00  0.0000000000000000e+00
                         7.0710678118654746e-01  0.0000000000000000e+00  0.0000000000000000e+00  0.0000000000000000e+00  0.0000000000000000e+00  0.0000000000000000e+00  7.0710678118654746e-01  1.8000000000000000e+02
                         7.0710678118654746e-01  0.0000000000000000e+00  0.0000000000000000e+00  0.0000000000000000e+00  0.0000000000000000e+00  0.0000000000000000e+00  7.0710678118654746e-01  0.0000000000000000e+00
                         0.0000000000000000e+00  0.0000000000000000e+00  7.0710678118654746e-01  1.8000000000000000e+02  7.0710678118654746e-01  0.0000000000000000e+00  0.0000000000000000e+00  0.0000000000000000e+00
2.529000000000000e+00  0.0000000000000000e+00  0.0000000000000000e+00  7.0710678118654746e-01  0.0000000000000000e+00  7.0710678118654746e-01  0.0000000000000000e+00  0.0000000000000000e+00  0.0000000000000000e+00
                         7.0710678118654746e-01  0.0000000000000000e+00  0.0000000000000000e+00  0.0000000000000000e+00  0.0000000000000000e+00  0.0000000000000000e+00  7.0710678118654746e-01  1.8000000000000000e+02
                         7.0710678118654746e-01  0.0000000000000000e+00  0.0000000000000000e+00  0.0000000000000000e+00  0.0000000000000000e+00  0.0000000000000000e+00  7.0710678118654746e-01  0.0000000000000000e+00
                         0.0000000000000000e+00  0.0000000000000000e+00  7.0710678118654746e-01  1.8000000000000000e+02  7.0710678118654746e-01  0.0000000000000000e+00  0.0000000000000000e+00  0.0000000000000000e+00
2.530000000000000e+00  0.0000000000000000e+00  0.0000000000000000e+00  7.0710678118654746e-01  0.0000000000000000e+00  7.0710678118654746e-01  0.0000000000000000e+00  0.0000000000000000e+00  0.0000000000000000e+00
                         7.0710678118654746e-01  0.0000000000000000e+00  0.0000000000000000e+00  0.0000000000000000e+00  0.0000000000000000e+00  0.0000000000000000e+00  7.0710678118654746e-01  1.8000000000000000e+02
                         7.0710678118654746e-01  0.0000000000000000e+00  0.0000000000000000e+00  0.0000000000000000e+00  0.0000000000000000e+00  0.0000000000000000e+00  7.0710678118654746e-01  0.0000000000000000e+00
                         0.0000000000000000e+00  0.0000000000000000e+00  7.0710678118654746e-01  1.8000000000000000e+02  7.0710678118654746e-01  0.0000000000000000e+00  0.0000000000000000e+00  0.0000000000000000e+00
2.531000000000000e+00  0.0000000000000000e+00  0.0000000000000000e+00  7.0710678118654746e-01  0.0000000000000000e+00  7.0710678118654746e-01  0.0000000000000000e+00  0.0000000000000000e+00  0.0000000000000000e+00
                         7.0710678118654746e-01  0.0000000000000000e+00  0.0000000000000000e+00  0.0000000000000000e+00  0.0000000000000000e+00  0.0000000000000000e+00  7.0710678118654746e-01  1.8000000000000000e+02
                         7.0710678118654746e-01  0.0000000000000000e+00  0.0000000000000000e+00  0.0000000000000000e+00  0.0000000000000000e+00  0.0000000000000000e+00  7.0710678118654746e-01  0.0000000000000000e+00
                         0.0000000000000000e+00  0.0000000000000000e+00  7.0710678118654746e-01  1.8000000000000000e+02  7.0710678118654746e-01  0.0000000000000000e+00  0.0000000000000000e+00  0.0000000000000000e+00
2.532000000000000e+00  0.0000000000000000e+00  0.0000000000000000e+00  7.0710678118654746e-01  0.0000000000000000e+00  7.0710678118654746e-01  0.0000000000000000e+00  0.0000000000000000e+00  0.0000000000000000e+00
                         7.0710678118654746e-01  0.0000000000000000e+00  0.0000000000000000e+00  0.0000000000000000e+00  0.0000000000000000e+00  0.0000000000000000e+00  7.0710678118654746e-01  1.8000000000000000e+02
                         7.0710678118654746e-01  0.0000000000000000e+00  0.0000000000000000e+00  0.0000000000000000e+00  0.0000000000000000e+00  0.0000000000000000e+00  7.0710678118654746e-01  0.0000000000000000e+00
                         0.0000000000000000e+00  0.0000000000000000e+00  7.0710678118654746e-01  1.8000000000000000e+02  7.0710678118654746e-01  0.0000000000000000e+00  0.0000000000000000e+00  0.0000000000000000e+00
2.533000000000000e+00  0.0000000000000000e+00  0.0000000000000000e+00  7.0710678118654746e-01  0.0000000000000000e+00  7.0710678118654746e-01  0.0000000000000000e+00  0.0000000000000000e+00  0.0000000000000000e+00
                         7.0710678118654746e-01  0.0000000000000000e+00  0.0000000000000000e+00  0.0000000000000000e+00  0.0000000000000000e+00  0.0000000000000000e+00  7.0710678118654746e-01  1.8000000000000000e+02
                         7.0710678118654746e-01  0.0000000000000000e+00  0.0000000000000000e+00  0.0000000000000000e+00  0.0000000000000000e+00  0.0000000000000000e+00  7.0710678118654746e-01  0.0000000000000000e+00
                         0.0000000000000000e+00  0.0000000000000000e+00  7.0710678118654746e-01  1.8000000000000000e+02  7.0710678118654746e-01  0.0000000000000000e+00  0.0000000000000000e+00  0.0000000000000000e+00
2.534000000000000e+00  0.0000000000000000e+00  0.0000000000000000e+00  7.0710678118654746e-01  0.0000000000000000e+00  7.0710678118654746e-01  0.0000000000000000e+00  0.0000000000000000e+00  0.0000000000000000e+00
                         7.0710678118654746e-01  0.0000000000000000e+00  0.0000000000000000e+00  0.0000000000000000e+00  0.0000000000000000e+00  0.0000000000000000e+00  7.0710678118654746e-01  1.8000000000000000e+02
                         7.0710678118654746e-01  0.0000000000000000e+00  0.0000000000000000e+00  0.0000000000000000e+00  0.0000000000000000e+00  0.0000000000000000e+00  7.0710678118654746e-01  0.0000000000000000e+00
                         0.0000000000000000e+00  0.0000000000000000e+00  7.0710678118654746e-01  1.8000000000000000e+02  7.0710678118654746e-01  0.0000000000000000e+00  0.0000000000000000e+00  0.0000000000000000e+00
2.535000000000000e+00  0.0000000000000000e+00  0.0000000000000000e+00  7.0710678118654746e-01  0.0000000000000000e+00  7.0710678118654746e-01  0.0000000000000000e+00  0.0000000000000000e+00  0.0000000000000000e+00
                         7.0710678118654746e-01  0.0000000000000000e+00  0.0000000000000000e+00  0.0000000000000000e+00  0.0000000000000000e+00  0.0000000000000000e+00  7.0710678118654746e-01  1.8000000000000000e+02
                         7.0710678118654746e-01  0.0000000000000000e+00  0.0000000000000000e+00  0.0000000000000000e+00  0.0000000000000000e+00  0.0000000000000000e+00  7.0710678118654746e-01  0.0000000000000000e+00
                         0.0000000000000000e+00  0.0000000000000000e+00  7.0710678118654746e-01  1.8000000000000000e+02  7.0710678118654746e-01  0.0000000000000000e+00  0.0000000000000000e+00  0.0000000000000000e+00
2.536000000000000e+00  0.0000000000000000e+00  0.0000000000000000e+00  7.0710678118654746e-01  0.0000000000000000e+00  7.0710678118654746e-01  0.0000000000000000e+00  0.0000000000000000e+00  0.0000000000000000e+00
                         7.0710678118654746e-01  0.0000000000000000e+00  0.0000000000000000e+00  0.0000000000000000e+00  0.0000000000000000e+00  0.0000000000000000e+00  7.0710678118654746e-01  1.8000000000000000e+02
                         7.0710678118654746e-01  0.0000000000000000e+00  0.0000000000000000e+00  0.0000000000000000e+00  0.0000000000000000e+00  0.0000000000000000e+00  7.0710678118654746e-01  0.0000000000000000e+00
                         0.0000000000000000e+00  0.0000000000000000e+00  7.0710678118654746e-01  1.8000000000000000e+02  7.0710678118654746e-01  0.0000000000000000e+00  0.0000000000000000e+00  0.0000000000000000e+00
2.537000000000000e+00  0.0000000000000000e+00  0.0000000000000000e+00  7.0710678118654746e-01  0.0000000000000000e+00  7.0710678118654746e-01  0.0000000000000000e+00  0.0000000000000000e+00  0.0000000000000000e+00
                         7.0710678118654746e-01  0.0000000000000000e+00  0.0000000000000000e+00  0.0000000000000000e+00  0.0000000000000000e+00  0.0000000000000000e+00  7.0710678118654746e-01  1.8000000000000000e+02
                         7.0710678118654746e-01  0.0000000000000000e+00  0.0000000000000000e+00  0.0000000000000000e+00  0.0000000000000000e+00  0.0000000000000000e+00  7.0710678118654746e-01  0.0000000000000000e+00
                         0.0000000000000000e+00  0.0000000000000000e+00  7.0710678118654746e-01  1.8000000000000000e+02  7.0710678118654746e-01  0.0000000000000000e+00  0.0000000000000000e+00  0.0000000000000000e+00
2.538000000000000e+00  0.0000000000000000e+00  0.0000000000000000e+00  7.0710678118654746e-01  0.0000000000000000e+00  7.0710678118654746e-01  0.0000000000000000e+00  0.0000000000000000e+00  0.0000000000000000e+00
                         7.0710678118654746e-01  0.0000000000000000e+00  0.0000000000000000e+00  0.0000000000000000e+00  0.0000000000000000e+00  0.0000000000000000e+00  7.0710678118654746e-01  1.8000000000000000e+02
                         7.0710678118654746e-01  0.0000000000000000e+00  0.0000000000000000e+00  0.0000000000000000e+00  0.0000000000000000e+00  0.0000000000000000e+00  7.0710678118654746e-01  0.0000000000000000e+00
                         0.0000000000000000e+00  0.0000000000000000e+00  7.0710678118654746e-01  1.8000000000000000e+02  7.0710678118654746e-01  0.0000000000000000e+00  0.0000000000000000e+00  0.0000000000000000e+00
2.539000000000000e+00  0.0000000000000000e+00  0.0000000000000000e+00  7.0710678118654746e-01  0.0000000000000000e+00  7.0710678118654746e-01  0.0000000000000000e+00  0.0000000000000000e+00  0.0000000000000000e+00
                         7.0710678118654746e-01  0.0000000000000000e+00  0.0000000000000000e+00  0.0000000000000000e+00  0.0000000000000000e+00  0.0000000000000000e+00  7.0710678118654746e-01  1.8000000000000000e+02
                         7.0710678118654746e-01  0.0000000000000000e+00  0.0000000000000000e+00  0.0000000000000000e+00  0.0000000000000000e+00  0.0000000000000000e+00  7.0710678118654746e-01  0.0000000000000000e+00
                         0.0000000000000000e+00  0.0000000000000000e+00  7.0710678118654746e-01  1.8000000000000000e+02  7.0710678118654746e-01  0.0000000000000000e+00  0.0000000000000000e+00  0.0000000000000000e+00
2.540000000000000e+00  0.0000000000000000e+00  0.0000000000000000e+00  7.0710678118654746e-01  0.0000000000000000e+00  7.0710678118654746e-01  0.0000000000000000e+00  0.0000000000000000e+00  0.0000000000000000e+00
                         7.0710678118654746e-01  0.0000000000000000e+00  0.0000000000000000e+00  0.0000000000000000e+00  0.0000000000000000e+00  0.0000000000000000e+00  7.0710678118654746e-01  1.8000000000000000e+02
                         7.0710678118654746e-01  0.0000000000000000e+00  0.0000000000000000e+00  0.0000000000000000e+00  0.0000000000000000e+00  0.0000000000000000e+00  7.0710678118654746e-01  0.0000000000000000e+00
                         0.0000000000000000e+00  0.0000000000000000e+00  7.0710678118654746e-01  1.8000000000000000e+02  7.0710678118654746e-01  0.0000000000000000e+00  0.0000000000000000e+00  0.0000000000000000e+00
2.541000000000000e+00  0.0000000000000000e+00  0.0000000000000000e+00  7.0710678118654746e-01  0.0000000000000000e+00  7.0710678118654746e-01  0.0000000000000000e+00  0.0000000000000000e+00  0.0000000000000000e+00
                         7.0710678118654746e-01  0.0000000000000000e+00  0.0000000000000000e+00  0.0000000000000000e+00  0.0000000000000000e+00  0.0000000000000000e+00  7.0710678118654746e-01  1.8000000000000000e+02
                         7.0710678118654746e-01  0.0000000000000000e+00  0.0000000000000000e+00  0.0000000000000000e+00  0.0000000000000000e+00  0.0000000000000000e+00  7.0710678118654746e-01  0.0000000000000000e+00
                         0.0000000000000000e+00  0.0000000000000000e+00  7.0710678118654746e-01  1.8000000000000000e+02  7.0710678118654746e-01  0.0000000000000000e+00  0.0000000000000000e+00  0.0000000000000000e+00
2.542000000000000e+00  0.0000000000000000e+00  0.0000000000000000e+00  7.0710678118654746e-01  0.0000000000000000e+00  7.0710678118654746e-01  0.0000000000000000e+00  0.0000000000000000e+00  0.0000000000000000e+00
                         7.0710678118654746e-01  0.0000000000000000e+00  0.0000000000000000e+00  0.0000000000000000e+00  0.0000000000000000e+00  0.0000000000000000e+00  7.0710678118654746e-01  1.8000000000000000e+02
                         7.0710678118654746e-01  0.0000000000000000e+00  0.0000000000000000e+00  0.0000000000000000e+00  0.0000000000000000e+00  0.0000000000000000e+00  7.0710678118654746e-01  0.0000000000000000e+00
                         0.0000000000000000e+00  0.0000000000000000e+00  7.0710678118654746e-01  1.8000000000000000e+02  7.0710678118654746e-01  0.0000000000000000e+00  0.0000000000000000e+00  0.0000000000000000e+00
2.543000000000000e+00  0.0000000000000000e+00  0.0000000000000000e+00  7.0710678118654746e-01  0.0000000000000000e+00  7.0710678118654746e-01  0.0000000000000000e+00  0.0000000000000000e+00  0.0000000000000000e+00
                         7.0710678118654746e-01  0.0000000000000000e+00  0.0000000000000000e+00  0.0000000000000000e+00  0.0000000000000000e+00  0.0000000000000000e+00  7.0710678118654746e-01  1.8000000000000000e+02
                         7.0710678118654746e-01  0.0000000000000000e+00  0.0000000000000000e+00  0.0000000000000000e+00  0.0000000000000000e+00  0.0000000000000000e+00  7.0710678118654746e-01  0.0000000000000000e+00
                         0.0000000000000000e+00  0.0000000000000000e+00  7.0710678118654746e-01  1.8000000000000000e+02  7.0710678118654746e-01  0.0000000000000000e+00  0.0000000000000000e+00  0.0000000000000000e+00
2.544000000000000e+00  0.0000000000000000e+00  0.0000000000000000e+00  7.0710678118654746e-01  0.0000000000000000e+00  7.0710678118654746e-01  0.0000000000000000e+00  0.0000000000000000e+00  0.0000000000000000e+00
                         7.0710678118654746e-01  0.0000000000000000e+00  0.0000000000000000e+00  0.0000000000000000e+00  0.0000000000000000e+00  0.0000000000000000e+00  7.0710678118654746e-01  1.8000000000000000e+02
                         7.0710678118654746e-01  0.0000000000000000e+00  0.0000000000000000e+00  0.0000000000000000e+00  0.0000000000000000e+00  0.0000000000000000e+00  7.0710678118654746e-01  0.0000000000000000e+00
                         0.0000000000000000e+00  0.0000000000000000e+00  7.0710678118654746e-01  1.8000000000000000e+02  7.0710678118654746e-01  0.0000000000000000e+00  0.0000000000000000e+00  0.0000000000000000e+00
2.545000000000000e+00  0.0000000000000000e+00  0.0000000000000000e+00  7.0710678118654746e-01  0.0000000000000000e+00  7.0710678118654746e-01  0.0000000000000000e+00  0.0000000000000000e+00  0.0000000000000000e+00
                         7.0710678118654746e-01  0.0000000000000000e+00  0.0000000000000000e+00  0.0000000000000000e+00  0.0000000000000000e+00  0.0000000000000000e+00  7.0710678118654746e-01  1.8000000000000000e+02
                         7.0710678118654746e-01  0.0000000000000000e+00  0.0000000000000000e+00  0.0000000000000000e+00  0.0000000000000000e+00  0.0000000000000000e+00  7.0710678118654746e-01  0.0000000000000000e+00
                         0.0000000000000000e+00  0.0000000000000000e+00  7.0710678118654746e-01  1.8000000000000000e+02  7.0710678118654746e-01  0.0000000000000000e+00  0.0000000000000000e+00  0.0000000000000000e+00
2.546000000000000e+00  0.0000000000000000e+00  0.0000000000000000e+00  7.0710678118654746e-01  0.0000000000000000e+00  7.0710678118654746e-01  0.0000000000000000e+00  0.0000000000000000e+00  0.0000000000000000e+00
                         7.0710678118654746e-01  0.0000000000000000e+00  0.0000000000000000e+00  0.0000000000000000e+00  0.0000000000000000e+00  0.0000000000000000e+00  7.0710678118654746e-01  1.8000000000000000e+02
                         7.0710678118654746e-01  0.0000000000000000e+00  0.0000000000000000e+00  0.0000000000000000e+00  0.0000000000000000e+00  0.0000000000000000e+00  7.0710678118654746e-01  0.0000000000000000e+00
                         0.0000000000000000e+00  0.0000000000000000e+00  7.0710678118654746e-01  1.8000000000000000e+02  7.0710678118654746e-01  0.0000000000000000e+00  0.0000000000000000e+00  0.0000000000000000e+00
2.547000000000000e+00  0.0000000000000000e+00  0.0000000000000000e+00  7.0710678118654746e-01  0.0000000000000000e+00  7.0710678118654746e-01  0.0000000000000000e+00  0.0000000000000000e+00  0.0000000000000000e+00
                         7.0710678118654746e-01  0.0000000000000000e+00  0.0000000000000000e+00  0.0000000000000000e+00  0.0000000000000000e+00  0.0000000000000000e+00  7.0710678118654746e-01  1.8000000000000000e+02
                         7.0710678118654746e-01  0.0000000000000000e+00  0.0000000000000000e+00  0.0000000000000000e+00  0.0000000000000000e+00  0.0000000000000000e+00  7.0710678118654746e-01  0.0000000000000000e+00
                         0.0000000000000000e+00  0.0000000000000000e+00  7.0710678118654746e-01  1.8000000000000000e+02  7.0710678118654746e-01  0.0000000000000000e+00  0.0000000000000000e+00  0.0000000000000000e+00
2.548000000000000e+00  0.0000000000000000e+00  0.0000000000000000e+00  7.0710678118654746e-01  0.0000000000000000e+00  7.0710678118654746e-01  0.0000000000000000e+00  0.0000000000000000e+00  0.0000000000000000e+00
                         7.0710678118654746e-01  0.0000000000000000e+00  0.0000000000000000e+00  0.0000000000000000e+00  0.0000000000000000e+00  0.0000000000000000e+00  7.0710678118654746e-01  1.8000000000000000e+02
                         7.0710678118654746e-01  0.0000000000000000e+00  0.0000000000000000e+00  0.0000000000000000e+00  0.0000000000000000e+00  0.0000000000000000e+00  7.0710678118654746e-01  0.0000000000000000e+00
                         0.0000000000000000e+00  0.0000000000000000e+00  7.0710678118654746e-01  1.8000000000000000e+02  7.0710678118654746e-01  0.0000000000000000e+00  0.0000000000000000e+00  0.0000000000000000e+00
2.549000000000000e+00  0.0000000000000000e+00  0.0000000000000000e+00  7.0710678118654746e-01  0.0000000000000000e+00  7.0710678118654746e-01  0.0000000000000000e+00  0.0000000000000000e+00  0.0000000000000000e+00
                         7.0710678118654746e-01  0.0000000000000000e+00  0.0000000000000000e+00  0.0000000000000000e+00  0.0000000000000000e+00  0.0000000000000000e+00  7.0710678118654746e-01  1.8000000000000000e+02
                         7.0710678118654746e-01  0.0000000000000000e+00  0.0000000000000000e+00  0.0000000000000000e+00  0.0000000000000000e+00  0.0000000000000000e+00  7.0710678118654746e-01  0.0000000000000000e+00
                         0.0000000000000000e+00  0.0000000000000000e+00  7.0710678118654746e-01  1.8000000000000000e+02  7.0710678118654746e-01  0.0000000000000000e+00  0.0000000000000000e+00  0.0000000000000000e+00
2.550000000000000e+00  0.0000000000000000e+00  0.0000000000000000e+00  7.0710678118654746e-01  0.0000000000000000e+00  7.0710678118654746e-01  0.0000000000000000e+00  0.0000000000000000e+00  0.0000000000000000e+00
                         7.0710678118654746e-01  0.0000000000000000e+00  0.0000000000000000e+00  0.0000000000000000e+00  0.0000000000000000e+00  0.0000000000000000e+00  7.0710678118654746e-01  1.8000000000000000e+02
                         7.0710678118654746e-01  0.0000000000000000e+00  0.0000000000000000e+00  0.0000000000000000e+00  0.0000000000000000e+00  0.0000000000000000e+00  7.0710678118654746e-01  0.0000000000000000e+00
                         0.0000000000000000e+00  0.0000000000000000e+00  7.0710678118654746e-01  1.8000000000000000e+02  7.0710678118654746e-01  0.0000000000000000e+00  0.0000000000000000e+00  0.0000000000000000e+00
2.551000000000000e+00  0.0000000000000000e+00  0.0000000000000000e+00  7.0710678118654746e-01  0.0000000000000000e+00  7.0710678118654746e-01  0.0000000000000000e+00  0.0000000000000000e+00  0.0000000000000000e+00
                         7.0710678118654746e-01  0.0000000000000000e+00  0.0000000000000000e+00  0.0000000000000000e+00  0.0000000000000000e+00  0.0000000000000000e+00  7.0710678118654746e-01  1.8000000000000000e+02
                         7.0710678118654746e-01  0.0000000000000000e+00  0.0000000000000000e+00  0.0000000000000000e+00  0.0000000000000000e+00  0.0000000000000000e+00  7.0710678118654746e-01  0.0000000000000000e+00
                         0.0000000000000000e+00  0.0000000000000000e+00  7.0710678118654746e-01  1.8000000000000000e+02  7.0710678118654746e-01  0.0000000000000000e+00  0.0000000000000000e+00  0.0000000000000000e+00
2.552000000000000e+00  0.0000000000000000e+00  0.0000000000000000e+00  7.0710678118654746e-01  0.0000000000000000e+00  7.0710678118654746e-01  0.0000000000000000e+00  0.0000000000000000e+00  0.0000000000000000e+00
                         7.0710678118654746e-01  0.0000000000000000e+00  0.0000000000000000e+00  0.0000000000000000e+00  0.0000000000000000e+00  0.0000000000000000e+00  7.0710678118654746e-01  1.8000000000000000e+02
                         7.0710678118654746e-01  0.0000000000000000e+00  0.0000000000000000e+00  0.0000000000000000e+00  0.0000000000000000e+00  0.0000000000000000e+00  7.0710678118654746e-01  0.0000000000000000e+00
                         0.0000000000000000e+00  0.0000000000000000e+00  7.0710678118654746e-01  1.8000000000000000e+02  7.0710678118654746e-01  0.0000000000000000e+00  0.0000000000000000e+00  0.0000000000000000e+00
2.553000000000000e+00  0.0000000000000000e+00  0.0000000000000000e+00  7.0710678118654746e-01  0.0000000000000000e+00  7.0710678118654746e-01  0.0000000000000000e+00  0.0000000000000000e+00  0.0000000000000000e+00
                         7.0710678118654746e-01  0.0000000000000000e+00  0.0000000000000000e+00  0.0000000000000000e+00  0.0000000000000000e+00  0.0000000000000000e+00  7.0710678118654746e-01  1.8000000000000000e+02
                         7.0710678118654746e-01  0.0000000000000000e+00  0.0000000000000000e+00  0.0000000000000000e+00  0.0000000000000000e+00  0.0000000000000000e+00  7.0710678118654746e-01  0.0000000000000000e+00
                         0.0000000000000000e+00  0.0000000000000000e+00  7.0710678118654746e-01  1.8000000000000000e+02  7.0710678118654746e-01  0.0000000000000000e+00  0.0000000000000000e+00  0.0000000000000000e+00
2.554000000000000e+00  0.0000000000000000e+00  0.0000000000000000e+00  7.0710678118654746e-01  0.0000000000000000e+00  7.0710678118654746e-01  0.0000000000000000e+00  0.0000000000000000e+00  0.0000000000000000e+00
                         7.0710678118654746e-01  0.0000000000000000e+00  0.0000000000000000e+00  0.0000000000000000e+00  0.0000000000000000e+00  0.0000000000000000e+00  7.0710678118654746e-01  1.8000000000000000e+02
                         7.0710678118654746e-01  0.0000000000000000e+00  0.0000000000000000e+00  0.0000000000000000e+00  0.0000000000000000e+00  0.0000000000000000e+00  7.0710678118654746e-01  0.0000000000000000e+00
                         0.0000000000000000e+00  0.0000000000000000e+00  7.0710678118654746e-01  1.8000000000000000e+02  7.0710678118654746e-01  0.0000000000000000e+00  0.0000000000000000e+00  0.0000000000000000e+00
2.555000000000000e+00  0.0000000000000000e+00  0.0000000000000000e+00  7.0710678118654746e-01  0.0000000000000000e+00  7.0710678118654746e-01  0.0000000000000000e+00  0.0000000000000000e+00  0.0000000000000000e+00
                         7.0710678118654746e-01  0.0000000000000000e+00  0.0000000000000000e+00  0.0000000000000000e+00  0.0000000000000000e+00  0.0000000000000000e+00  7.0710678118654746e-01  1.8000000000000000e+02
                         7.0710678118654746e-01  0.0000000000000000e+00  0.0000000000000000e+00  0.0000000000000000e+00  0.0000000000000000e+00  0.0000000000000000e+00  7.0710678118654746e-01  0.0000000000000000e+00
                         0.0000000000000000e+00  0.0000000000000000e+00  7.0710678118654746e-01  1.8000000000000000e+02  7.0710678118654746e-01  0.0000000000000000e+00  0.0000000000000000e+00  0.0000000000000000e+00
2.556000000000000e+00  0.0000000000000000e+00  0.0000000000000000e+00  7.0710678118654746e-01  0.0000000000000000e+00  7.0710678118654746e-01  0.0000000000000000e+00  0.0000000000000000e+00  0.0000000000000000e+00
                         7.0710678118654746e-01  0.0000000000000000e+00  0.0000000000000000e+00  0.0000000000000000e+00  0.0000000000000000e+00  0.0000000000000000e+00  7.0710678118654746e-01  1.8000000000000000e+02
                         7.0710678118654746e-01  0.0000000000000000e+00  0.0000000000000000e+00  0.0000000000000000e+00  0.0000000000000000e+00  0.0000000000000000e+00  7.0710678118654746e-01  0.0000000000000000e+00
                         0.0000000000000000e+00  0.0000000000000000e+00  7.0710678118654746e-01  1.8000000000000000e+02  7.0710678118654746e-01  0.0000000000000000e+00  0.0000000000000000e+00  0.0000000000000000e+00
2.557000000000000e+00  0.0000000000000000e+00  0.0000000000000000e+00  7.0710678118654746e-01  0.0000000000000000e+00  7.0710678118654746e-01  0.0000000000000000e+00  0.0000000000000000e+00  0.0000000000000000e+00
                         7.0710678118654746e-01  0.0000000000000000e+00  0.0000000000000000e+00  0.0000000000000000e+00  0.0000000000000000e+00  0.0000000000000000e+00  7.0710678118654746e-01  1.8000000000000000e+02
                         7.0710678118654746e-01  0.0000000000000000e+00  0.0000000000000000e+00  0.0000000000000000e+00  0.0000000000000000e+00  0.0000000000000000e+00  7.0710678118654746e-01  0.0000000000000000e+00
                         0.0000000000000000e+00  0.0000000000000000e+00  7.0710678118654746e-01  1.8000000000000000e+02  7.0710678118654746e-01  0.0000000000000000e+00  0.0000000000000000e+00  0.0000000000000000e+00
2.558000000000000e+00  0.0000000000000000e+00  0.0000000000000000e+00  7.0710678118654746e-01  0.0000000000000000e+00  7.0710678118654746e-01  0.0000000000000000e+00  0.0000000000000000e+00  0.0000000000000000e+00
                         7.0710678118654746e-01  0.0000000000000000e+00  0.0000000000000000e+00  0.0000000000000000e+00  0.0000000000000000e+00  0.0000000000000000e+00  7.0710678118654746e-01  1.8000000000000000e+02
                         7.0710678118654746e-01  0.0000000000000000e+00  0.0000000000000000e+00  0.0000000000000000e+00  0.0000000000000000e+00  0.0000000000000000e+00  7.0710678118654746e-01  0.0000000000000000e+00
                         0.0000000000000000e+00  0.0000000000000000e+00  7.0710678118654746e-01  1.8000000000000000e+02  7.0710678118654746e-01  0.0000000000000000e+00  0.0000000000000000e+00  0.0000000000000000e+00
2.559000000000000e+00  0.0000000000000000e+00  0.0000000000000000e+00  7.0710678118654746e-01  0.0000000000000000e+00  7.0710678118654746e-01  0.0000000000000000e+00  0.0000000000000000e+00  0.0000000000000000e+00
                         7.0710678118654746e-01  0.0000000000000000e+00  0.0000000000000000e+00  0.0000000000000000e+00  0.0000000000000000e+00  0.0000000000000000e+00  7.0710678118654746e-01  1.8000000000000000e+02
                         7.0710678118654746e-01  0.0000000000000000e+00  0.0000000000000000e+00  0.0000000000000000e+00  0.0000000000000000e+00  0.0000000000000000e+00  7.0710678118654746e-01  0.0000000000000000e+00
                         0.0000000000000000e+00  0.0000000000000000e+00  7.0710678118654746e-01  1.8000000000000000e+02  7.0710678118654746e-01  0.0000000000000000e+00  0.0000000000000000e+00  0.0000000000000000e+00
2.560000000000000e+00  0.0000000000000000e+00  0.0000000000000000e+00  7.0710678118654746e-01  0.0000000000000000e+00  7.0710678118654746e-01  0.0000000000000000e+00  0.0000000000000000e+00  0.0000000000000000e+00
                         7.0710678118654746e-01  0.0000000000000000e+00  0.0000000000000000e+00  0.0000000000000000e+00  0.0000000000000000e+00  0.0000000000000000e+00  7.0710678118654746e-01  1.8000000000000000e+02
                         7.0710678118654746e-01  0.0000000000000000e+00  0.0000000000000000e+00  0.0000000000000000e+00  0.0000000000000000e+00  0.0000000000000000e+00  7.0710678118654746e-01  0.0000000000000000e+00
                         0.0000000000000000e+00  0.0000000000000000e+00  7.0710678118654746e-01  1.8000000000000000e+02  7.0710678118654746e-01  0.0000000000000000e+00  0.0000000000000000e+00  0.0000000000000000e+00
2.561000000000000e+00  0.0000000000000000e+00  0.0000000000000000e+00  7.0710678118654746e-01  0.0000000000000000e+00  7.0710678118654746e-01  0.0000000000000000e+00  0.0000000000000000e+00  0.0000000000000000e+00
                         7.0710678118654746e-01  0.0000000000000000e+00  0.0000000000000000e+00  0.0000000000000000e+00  0.0000000000000000e+00  0.0000000000000000e+00  7.0710678118654746e-01  1.8000000000000000e+02
                         7.0710678118654746e-01  0.0000000000000000e+00  0.0000000000000000e+00  0.0000000000000000e+00  0.0000000000000000e+00  0.0000000000000000e+00  7.0710678118654746e-01  0.0000000000000000e+00
                         0.0000000000000000e+00  0.0000000000000000e+00  7.0710678118654746e-01  1.8000000000000000e+02  7.0710678118654746e-01  0.0000000000000000e+00  0.0000000000000000e+00  0.0000000000000000e+00
2.562000000000000e+00  0.0000000000000000e+00  0.0000000000000000e+00  7.0710678118654746e-01  0.0000000000000000e+00  7.0710678118654746e-01  0.0000000000000000e+00  0.0000000000000000e+00  0.0000000000000000e+00
                         7.0710678118654746e-01  0.0000000000000000e+00  0.0000000000000000e+00  0.0000000000000000e+00  0.0000000000000000e+00  0.0000000000000000e+00  7.0710678118654746e-01  1.8000000000000000e+02
                         7.0710678118654746e-01  0.0000000000000000e+00  0.0000000000000000e+00  0.0000000000000000e+00  0.0000000000000000e+00  0.0000000000000000e+00  7.0710678118654746e-01  0.0000000000000000e+00
                         0.0000000000000000e+00  0.0000000000000000e+00  7.0710678118654746e-01  1.8000000000000000e+02  7.0710678118654746e-01  0.0000000000000000e+00  0.0000000000000000e+00  0.0000000000000000e+00
2.563000000000000e+00  0.0000000000000000e+00  0.0000000000000000e+00  7.0710678118654746e-01  0.0000000000000000e+00  7.0710678118654746e-01  0.0000000000000000e+00  0.0000000000000000e+00  0.0000000000000000e+00
                         7.0710678118654746e-01  0.0000000000000000e+00  0.0000000000000000e+00  0.0000000000000000e+00  0.0000000000000000e+00  0.0000000000000000e+00  7.0710678118654746e-01  1.8000000000000000e+02
                         7.0710678118654746e-01  0.0000000000000000e+00  0.0000000000000000e+00  0.0000000000000000e+00  0.0000000000000000e+00  0.0000000000000000e+00  7.0710678118654746e-01  0.0000000000000000e+00
                         0.0000000000000000e+00  0.0000000000000000e+00  7.0710678118654746e-01  1.8000000000000000e+02  7.0710678118654746e-01  0.0000000000000000e+00  0.0000000000000000e+00  0.0000000000000000e+00
2.564000000000000e+00  0.0000000000000000e+00  0.0000000000000000e+00  7.0710678118654746e-01  0.0000000000000000e+00  7.0710678118654746e-01  0.0000000000000000e+00  0.0000000000000000e+00  0.0000000000000000e+00
                         7.0710678118654746e-01  0.0000000000000000e+00  0.0000000000000000e+00  0.0000000000000000e+00  0.0000000000000000e+00  0.0000000000000000e+00  7.0710678118654746e-01  1.8000000000000000e+02
                         7.0710678118654746e-01  0.0000000000000000e+00  0.0000000000000000e+00  0.0000000000000000e+00  0.0000000000000000e+00  0.0000000000000000e+00  7.0710678118654746e-01  0.0000000000000000e+00
                         0.0000000000000000e+00  0.0000000000000000e+00  7.0710678118654746e-01  1.8000000000000000e+02  7.0710678118654746e-01  0.0000000000000000e+00  0.0000000000000000e+00  0.0000000000000000e+00
2.565000000000000e+00  0.0000000000000000e+00  0.0000000000000000e+00  7.0710678118654746e-01  0.0000000000000000e+00  7.0710678118654746e-01  0.0000000000000000e+00  0.0000000000000000e+00  0.0000000000000000e+00
                         7.0710678118654746e-01  0.0000000000000000e+00  0.0000000000000000e+00  0.0000000000000000e+00  0.0000000000000000e+00  0.0000000000000000e+00  7.0710678118654746e-01  1.8000000000000000e+02
                         7.0710678118654746e-01  0.0000000000000000e+00  0.0000000000000000e+00  0.0000000000000000e+00  0.0000000000000000e+00  0.0000000000000000e+00  7.0710678118654746e-01  0.0000000000000000e+00
                         0.0000000000000000e+00  0.0000000000000000e+00  7.0710678118654746e-01  1.8000000000000000e+02  7.0710678118654746e-01  0.0000000000000000e+00  0.0000000000000000e+00  0.0000000000000000e+00
2.566000000000000e+00  0.0000000000000000e+00  0.0000000000000000e+00  7.0710678118654746e-01  0.0000000000000000e+00  7.0710678118654746e-01  0.0000000000000000e+00  0.0000000000000000e+00  0.0000000000000000e+00
                         7.0710678118654746e-01  0.0000000000000000e+00  0.0000000000000000e+00  0.0000000000000000e+00  0.0000000000000000e+00  0.0000000000000000e+00  7.0710678118654746e-01  1.8000000000000000e+02
                         7.0710678118654746e-01  0.0000000000000000e+00  0.0000000000000000e+00  0.0000000000000000e+00  0.0000000000000000e+00  0.0000000000000000e+00  7.0710678118654746e-01  0.0000000000000000e+00
                         0.0000000000000000e+00  0.0000000000000000e+00  7.0710678118654746e-01  1.8000000000000000e+02  7.0710678118654746e-01  0.0000000000000000e+00  0.0000000000000000e+00  0.0000000000000000e+00
2.567000000000000e+00  0.0000000000000000e+00  0.0000000000000000e+00  7.0710678118654746e-01  0.0000000000000000e+00  7.0710678118654746e-01  0.0000000000000000e+00  0.0000000000000000e+00  0.0000000000000000e+00
                         7.0710678118654746e-01  0.0000000000000000e+00  0.0000000000000000e+00  0.0000000000000000e+00  0.0000000000000000e+00  0.0000000000000000e+00  7.0710678118654746e-01  1.8000000000000000e+02
                         7.0710678118654746e-01  0.0000000000000000e+00  0.0000000000000000e+00  0.0000000000000000e+00  0.0000000000000000e+00  0.0000000000000000e+00  7.0710678118654746e-01  0.0000000000000000e+00
                         0.0000000000000000e+00  0.0000000000000000e+00  7.0710678118654746e-01  1.8000000000000000e+02  7.0710678118654746e-01  0.0000000000000000e+00  0.0000000000000000e+00  0.0000000000000000e+00
2.568000000000000e+00  0.0000000000000000e+00  0.0000000000000000e+00  7.0710678118654746e-01  0.0000000000000000e+00  7.0710678118654746e-01  0.0000000000000000e+00  0.0000000000000000e+00  0.0000000000000000e+00
                         7.0710678118654746e-01  0.0000000000000000e+00  0.0000000000000000e+00  0.0000000000000000e+00  0.0000000000000000e+00  0.0000000000000000e+00  7.0710678118654746e-01  1.8000000000000000e+02
                         7.0710678118654746e-01  0.0000000000000000e+00  0.0000000000000000e+00  0.0000000000000000e+00  0.0000000000000000e+00  0.0000000000000000e+00  7.0710678118654746e-01  0.0000000000000000e+00
                         0.0000000000000000e+00  0.0000000000000000e+00  7.0710678118654746e-01  1.8000000000000000e+02  7.0710678118654746e-01  0.0000000000000000e+00  0.0000000000000000e+00  0.0000000000000000e+00
2.569000000000000e+00  0.0000000000000000e+00  0.0000000000000000e+00  7.0710678118654746e-01  0.0000000000000000e+00  7.0710678118654746e-01  0.0000000000000000e+00  0.0000000000000000e+00  0.0000000000000000e+00
                         7.0710678118654746e-01  0.0000000000000000e+00  0.0000000000000000e+00  0.0000000000000000e+00  0.0000000000000000e+00  0.0000000000000000e+00  7.0710678118654746e-01  1.8000000000000000e+02
                         7.0710678118654746e-01  0.0000000000000000e+00  0.0000000000000000e+00  0.0000000000000000e+00  0.0000000000000000e+00  0.0000000000000000e+00  7.0710678118654746e-01  0.0000000000000000e+00
                         0.0000000000000000e+00  0.0000000000000000e+00  7.0710678118654746e-01  1.8000000000000000e+02  7.0710678118654746e-01  0.0000000000000000e+00  0.0000000000000000e+00  0.0000000000000000e+00
2.570000000000000e+00  0.0000000000000000e+00  0.0000000000000000e+00  7.0710678118654746e-01  0.0000000000000000e+00  7.0710678118654746e-01  0.0000000000000000e+00  0.0000000000000000e+00  0.0000000000000000e+00
                         7.0710678118654746e-01  0.0000000000000000e+00  0.0000000000000000e+00  0.0000000000000000e+00  0.0000000000000000e+00  0.0000000000000000e+00  7.0710678118654746e-01  1.8000000000000000e+02
                         7.0710678118654746e-01  0.0000000000000000e+00  0.0000000000000000e+00  0.0000000000000000e+00  0.0000000000000000e+00  0.0000000000000000e+00  7.0710678118654746e-01  0.0000000000000000e+00
                         0.0000000000000000e+00  0.0000000000000000e+00  7.0710678118654746e-01  1.8000000000000000e+02  7.0710678118654746e-01  0.0000000000000000e+00  0.0000000000000000e+00  0.0000000000000000e+00
2.571000000000000e+00  0.0000000000000000e+00  0.0000000000000000e+00  7.0710678118654746e-01  0.0000000000000000e+00  7.0710678118654746e-01  0.0000000000000000e+00  0.0000000000000000e+00  0.0000000000000000e+00
                         7.0710678118654746e-01  0.0000000000000000e+00  0.0000000000000000e+00  0.0000000000000000e+00  0.0000000000000000e+00  0.0000000000000000e+00  7.0710678118654746e-01  1.8000000000000000e+02
                         7.0710678118654746e-01  0.0000000000000000e+00  0.0000000000000000e+00  0.0000000000000000e+00  0.0000000000000000e+00  0.0000000000000000e+00  7.0710678118654746e-01  0.0000000000000000e+00
                         0.0000000000000000e+00  0.0000000000000000e+00  7.0710678118654746e-01  1.8000000000000000e+02  7.0710678118654746e-01  0.0000000000000000e+00  0.0000000000000000e+00  0.0000000000000000e+00
2.572000000000000e+00  0.0000000000000000e+00  0.0000000000000000e+00  7.0710678118654746e-01  0.0000000000000000e+00  7.0710678118654746e-01  0.0000000000000000e+00  0.0000000000000000e+00  0.0000000000000000e+00
                         7.0710678118654746e-01  0.0000000000000000e+00  0.0000000000000000e+00  0.0000000000000000e+00  0.0000000000000000e+00  0.0000000000000000e+00  7.0710678118654746e-01  1.8000000000000000e+02
                         7.0710678118654746e-01  0.0000000000000000e+00  0.0000000000000000e+00  0.0000000000000000e+00  0.0000000000000000e+00  0.0000000000000000e+00  7.0710678118654746e-01  0.0000000000000000e+00
                         0.0000000000000000e+00  0.0000000000000000e+00  7.0710678118654746e-01  1.8000000000000000e+02  7.0710678118654746e-01  0.0000000000000000e+00  0.0000000000000000e+00  0.0000000000000000e+00
2.573000000000000e+00  0.0000000000000000e+00  0.0000000000000000e+00  7.0710678118654746e-01  0.0000000000000000e+00  7.0710678118654746e-01  0.0000000000000000e+00  0.0000000000000000e+00  0.0000000000000000e+00
                         7.0710678118654746e-01  0.0000000000000000e+00  0.0000000000000000e+00  0.0000000000000000e+00  0.0000000000000000e+00  0.0000000000000000e+00  7.0710678118654746e-01  1.8000000000000000e+02
                         7.0710678118654746e-01  0.0000000000000000e+00  0.0000000000000000e+00  0.0000000000000000e+00  0.0000000000000000e+00  0.0000000000000000e+00  7.0710678118654746e-01  0.0000000000000000e+00
                         0.0000000000000000e+00  0.0000000000000000e+00  7.0710678118654746e-01  1.8000000000000000e+02  7.0710678118654746e-01  0.0000000000000000e+00  0.0000000000000000e+00  0.0000000000000000e+00
2.574000000000000e+00  0.0000000000000000e+00  0.0000000000000000e+00  7.0710678118654746e-01  0.0000000000000000e+00  7.0710678118654746e-01  0.0000000000000000e+00  0.0000000000000000e+00  0.0000000000000000e+00
                         7.0710678118654746e-01  0.0000000000000000e+00  0.0000000000000000e+00  0.0000000000000000e+00  0.0000000000000000e+00  0.0000000000000000e+00  7.0710678118654746e-01  1.8000000000000000e+02
                         7.0710678118654746e-01  0.0000000000000000e+00  0.0000000000000000e+00  0.0000000000000000e+00  0.0000000000000000e+00  0.0000000000000000e+00  7.0710678118654746e-01  0.0000000000000000e+00
                         0.0000000000000000e+00  0.0000000000000000e+00  7.0710678118654746e-01  1.8000000000000000e+02  7.0710678118654746e-01  0.0000000000000000e+00  0.0000000000000000e+00  0.0000000000000000e+00
2.575000000000000e+00  0.0000000000000000e+00  0.0000000000000000e+00  7.0710678118654746e-01  0.0000000000000000e+00  7.0710678118654746e-01  0.0000000000000000e+00  0.0000000000000000e+00  0.0000000000000000e+00
                         7.0710678118654746e-01  0.0000000000000000e+00  0.0000000000000000e+00  0.0000000000000000e+00  0.0000000000000000e+00  0.0000000000000000e+00  7.0710678118654746e-01  1.8000000000000000e+02
                         7.0710678118654746e-01  0.0000000000000000e+00  0.0000000000000000e+00  0.0000000000000000e+00  0.0000000000000000e+00  0.0000000000000000e+00  7.0710678118654746e-01  0.0000000000000000e+00
                         0.0000000000000000e+00  0.0000000000000000e+00  7.0710678118654746e-01  1.8000000000000000e+02  7.0710678118654746e-01  0.0000000000000000e+00  0.0000000000000000e+00  0.0000000000000000e+00
2.576000000000000e+00  0.0000000000000000e+00  0.0000000000000000e+00  7.0710678118654746e-01  0.0000000000000000e+00  7.0710678118654746e-01  0.0000000000000000e+00  0.0000000000000000e+00  0.0000000000000000e+00
                         7.0710678118654746e-01  0.0000000000000000e+00  0.0000000000000000e+00  0.0000000000000000e+00  0.0000000000000000e+00  0.0000000000000000e+00  7.0710678118654746e-01  1.8000000000000000e+02
                         7.0710678118654746e-01  0.0000000000000000e+00  0.0000000000000000e+00  0.0000000000000000e+00  0.0000000000000000e+00  0.0000000000000000e+00  7.0710678118654746e-01  0.0000000000000000e+00
                         0.0000000000000000e+00  0.0000000000000000e+00  7.0710678118654746e-01  1.8000000000000000e+02  7.0710678118654746e-01  0.0000000000000000e+00  0.0000000000000000e+00  0.0000000000000000e+00
2.577000000000000e+00  0.0000000000000000e+00  0.0000000000000000e+00  7.0710678118654746e-01  0.0000000000000000e+00  7.0710678118654746e-01  0.0000000000000000e+00  0.0000000000000000e+00  0.0000000000000000e+00
                         7.0710678118654746e-01  0.0000000000000000e+00  0.0000000000000000e+00  0.0000000000000000e+00  0.0000000000000000e+00  0.0000000000000000e+00  7.0710678118654746e-01  1.8000000000000000e+02
                         7.0710678118654746e-01  0.0000000000000000e+00  0.0000000000000000e+00  0.0000000000000000e+00  0.0000000000000000e+00  0.0000000000000000e+00  7.0710678118654746e-01  0.0000000000000000e+00
                         0.0000000000000000e+00  0.0000000000000000e+00  7.0710678118654746e-01  1.8000000000000000e+02  7.0710678118654746e-01  0.0000000000000000e+00  0.0000000000000000e+00  0.0000000000000000e+00
2.578000000000000e+00  0.0000000000000000e+00  0.0000000000000000e+00  7.0710678118654746e-01  0.0000000000000000e+00  7.0710678118654746e-01  0.0000000000000000e+00  0.0000000000000000e+00  0.0000000000000000e+00
                         7.0710678118654746e-01  0.0000000000000000e+00  0.0000000000000000e+00  0.0000000000000000e+00  0.0000000000000000e+00  0.0000000000000000e+00  7.0710678118654746e-01  1.8000000000000000e+02
                         7.0710678118654746e-01  0.0000000000000000e+00  0.0000000000000000e+00  0.0000000000000000e+00  0.0000000000000000e+00  0.0000000000000000e+00  7.0710678118654746e-01  0.0000000000000000e+00
                         0.0000000000000000e+00  0.0000000000000000e+00  7.0710678118654746e-01  1.8000000000000000e+02  7.0710678118654746e-01  0.0000000000000000e+00  0.0000000000000000e+00  0.0000000000000000e+00
2.579000000000000e+00  0.0000000000000000e+00  0.0000000000000000e+00  7.0710678118654746e-01  0.0000000000000000e+00  7.0710678118654746e-01  0.0000000000000000e+00  0.0000000000000000e+00  0.0000000000000000e+00
                         7.0710678118654746e-01  0.0000000000000000e+00  0.0000000000000000e+00  0.0000000000000000e+00  0.0000000000000000e+00  0.0000000000000000e+00  7.0710678118654746e-01  1.8000000000000000e+02
                         7.0710678118654746e-01  0.0000000000000000e+00  0.0000000000000000e+00  0.0000000000000000e+00  0.0000000000000000e+00  0.0000000000000000e+00  7.0710678118654746e-01  0.0000000000000000e+00
                         0.0000000000000000e+00  0.0000000000000000e+00  7.0710678118654746e-01  1.8000000000000000e+02  7.0710678118654746e-01  0.0000000000000000e+00  0.0000000000000000e+00  0.0000000000000000e+00
2.580000000000000e+00  0.0000000000000000e+00  0.0000000000000000e+00  7.0710678118654746e-01  0.0000000000000000e+00  7.0710678118654746e-01  0.0000000000000000e+00  0.0000000000000000e+00  0.0000000000000000e+00
                         7.0710678118654746e-01  0.0000000000000000e+00  0.0000000000000000e+00  0.0000000000000000e+00  0.0000000000000000e+00  0.0000000000000000e+00  7.0710678118654746e-01  1.8000000000000000e+02
                         7.0710678118654746e-01  0.0000000000000000e+00  0.0000000000000000e+00  0.0000000000000000e+00  0.0000000000000000e+00  0.0000000000000000e+00  7.0710678118654746e-01  0.0000000000000000e+00
                         0.0000000000000000e+00  0.0000000000000000e+00  7.0710678118654746e-01  1.8000000000000000e+02  7.0710678118654746e-01  0.0000000000000000e+00  0.0000000000000000e+00  0.0000000000000000e+00
2.581000000000000e+00  0.0000000000000000e+00  0.0000000000000000e+00  7.0710678118654746e-01  0.0000000000000000e+00  7.0710678118654746e-01  0.0000000000000000e+00  0.0000000000000000e+00  0.0000000000000000e+00
                         7.0710678118654746e-01  0.0000000000000000e+00  0.0000000000000000e+00  0.0000000000000000e+00  0.0000000000000000e+00  0.0000000000000000e+00  7.0710678118654746e-01  1.8000000000000000e+02
                         7.0710678118654746e-01  0.0000000000000000e+00  0.0000000000000000e+00  0.0000000000000000e+00  0.0000000000000000e+00  0.0000000000000000e+00  7.0710678118654746e-01  0.0000000000000000e+00
                         0.0000000000000000e+00  0.0000000000000000e+00  7.0710678118654746e-01  1.8000000000000000e+02  7.0710678118654746e-01  0.0000000000000000e+00  0.0000000000000000e+00  0.0000000000000000e+00
2.582000000000000e+00  0.0000000000000000e+00  0.0000000000000000e+00  7.0710678118654746e-01  0.0000000000000000e+00  7.0710678118654746e-01  0.0000000000000000e+00  0.0000000000000000e+00  0.0000000000000000e+00
                         7.0710678118654746e-01  0.0000000000000000e+00  0.0000000000000000e+00  0.0000000000000000e+00  0.0000000000000000e+00  0.0000000000000000e+00  7.0710678118654746e-01  1.8000000000000000e+02
                         7.0710678118654746e-01  0.0000000000000000e+00  0.0000000000000000e+00  0.0000000000000000e+00  0.0000000000000000e+00  0.0000000000000000e+00  7.0710678118654746e-01  0.0000000000000000e+00
                         0.0000000000000000e+00  0.0000000000000000e+00  7.0710678118654746e-01  1.8000000000000000e+02  7.0710678118654746e-01  0.0000000000000000e+00  0.0000000000000000e+00  0.0000000000000000e+00
2.583000000000000e+00  0.0000000000000000e+00  0.0000000000000000e+00  7.0710678118654746e-01  0.0000000000000000e+00  7.0710678118654746e-01  0.0000000000000000e+00  0.0000000000000000e+00  0.0000000000000000e+00
                         7.0710678118654746e-01  0.0000000000000000e+00  0.0000000000000000e+00  0.0000000000000000e+00  0.0000000000000000e+00  0.0000000000000000e+00  7.0710678118654746e-01  1.8000000000000000e+02
                         7.0710678118654746e-01  0.0000000000000000e+00  0.0000000000000000e+00  0.0000000000000000e+00  0.0000000000000000e+00  0.0000000000000000e+00  7.0710678118654746e-01  0.0000000000000000e+00
                         0.0000000000000000e+00  0.0000000000000000e+00  7.0710678118654746e-01  1.8000000000000000e+02  7.0710678118654746e-01  0.0000000000000000e+00  0.0000000000000000e+00  0.0000000000000000e+00
2.584000000000000e+00  0.0000000000000000e+00  0.0000000000000000e+00  7.0710678118654746e-01  0.0000000000000000e+00  7.0710678118654746e-01  0.0000000000000000e+00  0.0000000000000000e+00  0.0000000000000000e+00
                         7.0710678118654746e-01  0.0000000000000000e+00  0.0000000000000000e+00  0.0000000000000000e+00  0.0000000000000000e+00  0.0000000000000000e+00  7.0710678118654746e-01  1.8000000000000000e+02
                         7.0710678118654746e-01  0.0000000000000000e+00  0.0000000000000000e+00  0.0000000000000000e+00  0.0000000000000000e+00  0.0000000000000000e+00  7.0710678118654746e-01  0.0000000000000000e+00
                         0.0000000000000000e+00  0.0000000000000000e+00  7.0710678118654746e-01  1.8000000000000000e+02  7.0710678118654746e-01  0.0000000000000000e+00  0.0000000000000000e+00  0.0000000000000000e+00
2.585000000000000e+00  0.0000000000000000e+00  0.0000000000000000e+00  7.0710678118654746e-01  0.0000000000000000e+00  7.0710678118654746e-01  0.0000000000000000e+00  0.0000000000000000e+00  0.0000000000000000e+00
                         7.0710678118654746e-01  0.0000000000000000e+00  0.0000000000000000e+00  0.0000000000000000e+00  0.0000000000000000e+00  0.0000000000000000e+00  7.0710678118654746e-01  1.8000000000000000e+02
                         7.0710678118654746e-01  0.0000000000000000e+00  0.0000000000000000e+00  0.0000000000000000e+00  0.0000000000000000e+00  0.0000000000000000e+00  7.0710678118654746e-01  0.0000000000000000e+00
                         0.0000000000000000e+00  0.0000000000000000e+00  7.0710678118654746e-01  1.8000000000000000e+02  7.0710678118654746e-01  0.0000000000000000e+00  0.0000000000000000e+00  0.0000000000000000e+00
2.586000000000000e+00  0.0000000000000000e+00  0.0000000000000000e+00  7.0710678118654746e-01  0.0000000000000000e+00  7.0710678118654746e-01  0.0000000000000000e+00  0.0000000000000000e+00  0.0000000000000000e+00
                         7.0710678118654746e-01  0.0000000000000000e+00  0.0000000000000000e+00  0.0000000000000000e+00  0.0000000000000000e+00  0.0000000000000000e+00  7.0710678118654746e-01  1.8000000000000000e+02
                         7.0710678118654746e-01  0.0000000000000000e+00  0.0000000000000000e+00  0.0000000000000000e+00  0.0000000000000000e+00  0.0000000000000000e+00  7.0710678118654746e-01  0.0000000000000000e+00
                         0.0000000000000000e+00  0.0000000000000000e+00  7.0710678118654746e-01  1.8000000000000000e+02  7.0710678118654746e-01  0.0000000000000000e+00  0.0000000000000000e+00  0.0000000000000000e+00
2.587000000000000e+00  0.0000000000000000e+00  0.0000000000000000e+00  7.0710678118654746e-01  0.0000000000000000e+00  7.0710678118654746e-01  0.0000000000000000e+00  0.0000000000000000e+00  0.0000000000000000e+00
                         7.0710678118654746e-01  0.0000000000000000e+00  0.0000000000000000e+00  0.0000000000000000e+00  0.0000000000000000e+00  0.0000000000000000e+00  7.0710678118654746e-01  1.8000000000000000e+02
                         7.0710678118654746e-01  0.0000000000000000e+00  0.0000000000000000e+00  0.0000000000000000e+00  0.0000000000000000e+00  0.0000000000000000e+00  7.0710678118654746e-01  0.0000000000000000e+00
                         0.0000000000000000e+00  0.0000000000000000e+00  7.0710678118654746e-01  1.8000000000000000e+02  7.0710678118654746e-01  0.0000000000000000e+00  0.0000000000000000e+00  0.0000000000000000e+00
2.588000000000000e+00  0.0000000000000000e+00  0.0000000000000000e+00  7.0710678118654746e-01  0.0000000000000000e+00  7.0710678118654746e-01  0.0000000000000000e+00  0.0000000000000000e+00  0.0000000000000000e+00
                         7.0710678118654746e-01  0.0000000000000000e+00  0.0000000000000000e+00  0.0000000000000000e+00  0.0000000000000000e+00  0.0000000000000000e+00  7.0710678118654746e-01  1.8000000000000000e+02
                         7.0710678118654746e-01  0.0000000000000000e+00  0.0000000000000000e+00  0.0000000000000000e+00  0.0000000000000000e+00  0.0000000000000000e+00  7.0710678118654746e-01  0.0000000000000000e+00
                         0.0000000000000000e+00  0.0000000000000000e+00  7.0710678118654746e-01  1.8000000000000000e+02  7.0710678118654746e-01  0.0000000000000000e+00  0.0000000000000000e+00  0.0000000000000000e+00
2.589000000000000e+00  0.0000000000000000e+00  0.0000000000000000e+00  7.0710678118654746e-01  0.0000000000000000e+00  7.0710678118654746e-01  0.0000000000000000e+00  0.0000000000000000e+00  0.0000000000000000e+00
                         7.0710678118654746e-01  0.0000000000000000e+00  0.0000000000000000e+00  0.0000000000000000e+00  0.0000000000000000e+00  0.0000000000000000e+00  7.0710678118654746e-01  1.8000000000000000e+02
                         7.0710678118654746e-01  0.0000000000000000e+00  0.0000000000000000e+00  0.0000000000000000e+00  0.0000000000000000e+00  0.0000000000000000e+00  7.0710678118654746e-01  0.0000000000000000e+00
                         0.0000000000000000e+00  0.0000000000000000e+00  7.0710678118654746e-01  1.8000000000000000e+02  7.0710678118654746e-01  0.0000000000000000e+00  0.0000000000000000e+00  0.0000000000000000e+00
2.590000000000000e+00  0.0000000000000000e+00  0.0000000000000000e+00  7.0710678118654746e-01  0.0000000000000000e+00  7.0710678118654746e-01  0.0000000000000000e+00  0.0000000000000000e+00  0.0000000000000000e+00
                         7.0710678118654746e-01  0.0000000000000000e+00  0.0000000000000000e+00  0.0000000000000000e+00  0.0000000000000000e+00  0.0000000000000000e+00  7.0710678118654746e-01  1.8000000000000000e+02
                         7.0710678118654746e-01  0.0000000000000000e+00  0.0000000000000000e+00  0.0000000000000000e+00  0.0000000000000000e+00  0.0000000000000000e+00  7.0710678118654746e-01  0.0000000000000000e+00
                         0.0000000000000000e+00  0.0000000000000000e+00  7.0710678118654746e-01  1.8000000000000000e+02  7.0710678118654746e-01  0.0000000000000000e+00  0.0000000000000000e+00  0.0000000000000000e+00
2.591000000000000e+00  0.0000000000000000e+00  0.0000000000000000e+00  7.0710678118654746e-01  0.0000000000000000e+00  7.0710678118654746e-01  0.0000000000000000e+00  0.0000000000000000e+00  0.0000000000000000e+00
                         7.0710678118654746e-01  0.0000000000000000e+00  0.0000000000000000e+00  0.0000000000000000e+00  0.0000000000000000e+00  0.0000000000000000e+00  7.0710678118654746e-01  1.8000000000000000e+02
                         7.0710678118654746e-01  0.0000000000000000e+00  0.0000000000000000e+00  0.0000000000000000e+00  0.0000000000000000e+00  0.0000000000000000e+00  7.0710678118654746e-01  0.0000000000000000e+00
                         0.0000000000000000e+00  0.0000000000000000e+00  7.0710678118654746e-01  1.8000000000000000e+02  7.0710678118654746e-01  0.0000000000000000e+00  0.0000000000000000e+00  0.0000000000000000e+00
2.592000000000000e+00  0.0000000000000000e+00  0.0000000000000000e+00  7.0710678118654746e-01  0.0000000000000000e+00  7.0710678118654746e-01  0.0000000000000000e+00  0.0000000000000000e+00  0.0000000000000000e+00
                         7.0710678118654746e-01  0.0000000000000000e+00  0.0000000000000000e+00  0.0000000000000000e+00  0.0000000000000000e+00  0.0000000000000000e+00  7.0710678118654746e-01  1.8000000000000000e+02
                         7.0710678118654746e-01  0.0000000000000000e+00  0.0000000000000000e+00  0.0000000000000000e+00  0.0000000000000000e+00  0.0000000000000000e+00  7.0710678118654746e-01  0.0000000000000000e+00
                         0.0000000000000000e+00  0.0000000000000000e+00  7.0710678118654746e-01  1.8000000000000000e+02  7.0710678118654746e-01  0.0000000000000000e+00  0.0000000000000000e+00  0.0000000000000000e+00
2.593000000000000e+00  0.0000000000000000e+00  0.0000000000000000e+00  7.0710678118654746e-01  0.0000000000000000e+00  7.0710678118654746e-01  0.0000000000000000e+00  0.0000000000000000e+00  0.0000000000000000e+00
                         7.0710678118654746e-01  0.0000000000000000e+00  0.0000000000000000e+00  0.0000000000000000e+00  0.0000000000000000e+00  0.0000000000000000e+00  7.0710678118654746e-01  1.8000000000000000e+02
                         7.0710678118654746e-01  0.0000000000000000e+00  0.0000000000000000e+00  0.0000000000000000e+00  0.0000000000000000e+00  0.0000000000000000e+00  7.0710678118654746e-01  0.0000000000000000e+00
                         0.0000000000000000e+00  0.0000000000000000e+00  7.0710678118654746e-01  1.8000000000000000e+02  7.0710678118654746e-01  0.0000000000000000e+00  0.0000000000000000e+00  0.0000000000000000e+00
2.594000000000000e+00  0.0000000000000000e+00  0.0000000000000000e+00  7.0710678118654746e-01  0.0000000000000000e+00  7.0710678118654746e-01  0.0000000000000000e+00  0.0000000000000000e+00  0.0000000000000000e+00
                         7.0710678118654746e-01  0.0000000000000000e+00  0.0000000000000000e+00  0.0000000000000000e+00  0.0000000000000000e+00  0.0000000000000000e+00  7.0710678118654746e-01  1.8000000000000000e+02
                         7.0710678118654746e-01  0.0000000000000000e+00  0.0000000000000000e+00  0.0000000000000000e+00  0.0000000000000000e+00  0.0000000000000000e+00  7.0710678118654746e-01  0.0000000000000000e+00
                         0.0000000000000000e+00  0.0000000000000000e+00  7.0710678118654746e-01  1.8000000000000000e+02  7.0710678118654746e-01  0.0000000000000000e+00  0.0000000000000000e+00  0.0000000000000000e+00
2.595000000000000e+00  0.0000000000000000e+00  0.0000000000000000e+00  7.0710678118654746e-01  0.0000000000000000e+00  7.0710678118654746e-01  0.0000000000000000e+00  0.0000000000000000e+00  0.0000000000000000e+00
                         7.0710678118654746e-01  0.0000000000000000e+00  0.0000000000000000e+00  0.0000000000000000e+00  0.0000000000000000e+00  0.0000000000000000e+00  7.0710678118654746e-01  1.8000000000000000e+02
                         7.0710678118654746e-01  0.0000000000000000e+00  0.0000000000000000e+00  0.0000000000000000e+00  0.0000000000000000e+00  0.0000000000000000e+00  7.0710678118654746e-01  0.0000000000000000e+00
                         0.0000000000000000e+00  0.0000000000000000e+00  7.0710678118654746e-01  1.8000000000000000e+02  7.0710678118654746e-01  0.0000000000000000e+00  0.0000000000000000e+00  0.0000000000000000e+00
2.596000000000000e+00  0.0000000000000000e+00  0.0000000000000000e+00  7.0710678118654746e-01  0.0000000000000000e+00  7.0710678118654746e-01  0.0000000000000000e+00  0.0000000000000000e+00  0.0000000000000000e+00
                         7.0710678118654746e-01  0.0000000000000000e+00  0.0000000000000000e+00  0.0000000000000000e+00  0.0000000000000000e+00  0.0000000000000000e+00  7.0710678118654746e-01  1.8000000000000000e+02
                         7.0710678118654746e-01  0.0000000000000000e+00  0.0000000000000000e+00  0.0000000000000000e+00  0.0000000000000000e+00  0.0000000000000000e+00  7.0710678118654746e-01  0.0000000000000000e+00
                         0.0000000000000000e+00  0.0000000000000000e+00  7.0710678118654746e-01  1.8000000000000000e+02  7.0710678118654746e-01  0.0000000000000000e+00  0.0000000000000000e+00  0.0000000000000000e+00
2.597000000000000e+00  0.0000000000000000e+00  0.0000000000000000e+00  7.0710678118654746e-01  0.0000000000000000e+00  7.0710678118654746e-01  0.0000000000000000e+00  0.0000000000000000e+00  0.0000000000000000e+00
                         7.0710678118654746e-01  0.0000000000000000e+00  0.0000000000000000e+00  0.0000000000000000e+00  0.0000000000000000e+00  0.0000000000000000e+00  7.0710678118654746e-01  1.8000000000000000e+02
                         7.0710678118654746e-01  0.0000000000000000e+00  0.0000000000000000e+00  0.0000000000000000e+00  0.0000000000000000e+00  0.0000000000000000e+00  7.0710678118654746e-01  0.0000000000000000e+00
                         0.0000000000000000e+00  0.0000000000000000e+00  7.0710678118654746e-01  1.8000000000000000e+02  7.0710678118654746e-01  0.0000000000000000e+00  0.0000000000000000e+00  0.0000000000000000e+00
2.598000000000000e+00  0.0000000000000000e+00  0.0000000000000000e+00  7.0710678118654746e-01  0.0000000000000000e+00  7.0710678118654746e-01  0.0000000000000000e+00  0.0000000000000000e+00  0.0000000000000000e+00
                         7.0710678118654746e-01  0.0000000000000000e+00  0.0000000000000000e+00  0.0000000000000000e+00  0.0000000000000000e+00  0.0000000000000000e+00  7.0710678118654746e-01  1.8000000000000000e+02
                         7.0710678118654746e-01  0.0000000000000000e+00  0.0000000000000000e+00  0.0000000000000000e+00  0.0000000000000000e+00  0.0000000000000000e+00  7.0710678118654746e-01  0.0000000000000000e+00
                         0.0000000000000000e+00  0.0000000000000000e+00  7.0710678118654746e-01  1.8000000000000000e+02  7.0710678118654746e-01  0.0000000000000000e+00  0.0000000000000000e+00  0.0000000000000000e+00
2.599000000000000e+00  0.0000000000000000e+00  0.0000000000000000e+00  7.0710678118654746e-01  0.0000000000000000e+00  7.0710678118654746e-01  0.0000000000000000e+00  0.0000000000000000e+00  0.0000000000000000e+00
                         7.0710678118654746e-01  0.0000000000000000e+00  0.0000000000000000e+00  0.0000000000000000e+00  0.0000000000000000e+00  0.0000000000000000e+00  7.0710678118654746e-01  1.8000000000000000e+02
                         7.0710678118654746e-01  0.0000000000000000e+00  0.0000000000000000e+00  0.0000000000000000e+00  0.0000000000000000e+00  0.0000000000000000e+00  7.0710678118654746e-01  0.0000000000000000e+00
                         0.0000000000000000e+00  0.0000000000000000e+00  7.0710678118654746e-01  1.8000000000000000e+02  7.0710678118654746e-01  0.0000000000000000e+00  0.0000000000000000e+00  0.0000000000000000e+00
2.600000000000000e+00  0.0000000000000000e+00  0.0000000000000000e+00  7.0710678118654746e-01  0.0000000000000000e+00  7.0710678118654746e-01  0.0000000000000000e+00  0.0000000000000000e+00  0.0000000000000000e+00
                         7.0710678118654746e-01  0.0000000000000000e+00  0.0000000000000000e+00  0.0000000000000000e+00  0.0000000000000000e+00  0.0000000000000000e+00  7.0710678118654746e-01  1.8000000000000000e+02
                         7.0710678118654746e-01  0.0000000000000000e+00  0.0000000000000000e+00  0.0000000000000000e+00  0.0000000000000000e+00  0.0000000000000000e+00  7.0710678118654746e-01  0.0000000000000000e+00
                         0.0000000000000000e+00  0.0000000000000000e+00  7.0710678118654746e-01  1.8000000000000000e+02  7.0710678118654746e-01  0.0000000000000000e+00  0.0000000000000000e+00  0.0000000000000000e+00
